p cnf 622 1100
-1 23 0
-23 24 0
-2 -23 25 0
-25 26 0
-3 -25 27 0
-27 28 0
-4 -27 0
-2 24 0
-3 -24 26 0
-4 -26 28 0
-5 -28 0
1 29 0
-29 30 0
2 -29 31 0
-31 32 0
3 -31 33 0
-33 34 0
4 -33 0
2 30 0
3 -30 32 0
4 -32 34 0
5 -34 0
-2 35 0
-35 36 0
-3 -35 37 0
-37 38 0
-4 -37 39 0
-39 40 0
-5 -39 0
-3 36 0
-4 -36 38 0
-5 -38 40 0
-6 -40 0
2 41 0
-41 42 0
3 -41 43 0
-43 44 0
4 -43 45 0
-45 46 0
5 -45 0
3 42 0
4 -42 44 0
5 -44 46 0
6 -46 0
-3 47 0
-47 48 0
-4 -47 49 0
-49 50 0
-5 -49 51 0
-51 52 0
-6 -51 0
-4 48 0
-5 -48 50 0
-6 -50 52 0
-7 -52 0
3 53 0
-53 54 0
4 -53 55 0
-55 56 0
5 -55 57 0
-57 58 0
6 -57 0
4 54 0
5 -54 56 0
6 -56 58 0
7 -58 0
-4 59 0
-59 60 0
-5 -59 61 0
-61 62 0
-6 -61 63 0
-63 64 0
-7 -63 0
-5 60 0
-6 -60 62 0
-7 -62 64 0
-8 -64 0
4 65 0
-65 66 0
5 -65 67 0
-67 68 0
6 -67 69 0
-69 70 0
7 -69 0
5 66 0
6 -66 68 0
7 -68 70 0
8 -70 0
-5 71 0
-71 72 0
-6 -71 73 0
-73 74 0
-7 -73 75 0
-75 76 0
-8 -75 0
-6 72 0
-7 -72 74 0
-8 -74 76 0
-9 -76 0
5 77 0
-77 78 0
6 -77 79 0
-79 80 0
7 -79 81 0
-81 82 0
8 -81 0
6 78 0
7 -78 80 0
8 -80 82 0
9 -82 0
-6 83 0
-83 84 0
-7 -83 85 0
-85 86 0
-8 -85 87 0
-87 88 0
-9 -87 0
-7 84 0
-8 -84 86 0
-9 -86 88 0
-10 -88 0
6 89 0
-89 90 0
7 -89 91 0
-91 92 0
8 -91 93 0
-93 94 0
9 -93 0
7 90 0
8 -90 92 0
9 -92 94 0
10 -94 0
-7 95 0
-95 96 0
-8 -95 97 0
-97 98 0
-9 -97 99 0
-99 100 0
-10 -99 0
-8 96 0
-9 -96 98 0
-10 -98 100 0
-11 -100 0
7 101 0
-101 102 0
8 -101 103 0
-103 104 0
9 -103 105 0
-105 106 0
10 -105 0
8 102 0
9 -102 104 0
10 -104 106 0
11 -106 0
-8 107 0
-107 108 0
-9 -107 109 0
-109 110 0
-10 -109 111 0
-111 112 0
-11 -111 0
-9 108 0
-10 -108 110 0
-11 -110 112 0
-12 -112 0
8 113 0
-113 114 0
9 -113 115 0
-115 116 0
10 -115 117 0
-117 118 0
11 -117 0
9 114 0
10 -114 116 0
11 -116 118 0
12 -118 0
-9 119 0
-119 120 0
-10 -119 121 0
-121 122 0
-11 -121 123 0
-123 124 0
-12 -123 0
-10 120 0
-11 -120 122 0
-12 -122 124 0
-13 -124 0
9 125 0
-125 126 0
10 -125 127 0
-127 128 0
11 -127 129 0
-129 130 0
12 -129 0
10 126 0
11 -126 128 0
12 -128 130 0
13 -130 0
-10 131 0
-131 132 0
-11 -131 133 0
-133 134 0
-12 -133 135 0
-135 136 0
-13 -135 0
-11 132 0
-12 -132 134 0
-13 -134 136 0
-14 -136 0
10 137 0
-137 138 0
11 -137 139 0
-139 140 0
12 -139 141 0
-141 142 0
13 -141 0
11 138 0
12 -138 140 0
13 -140 142 0
14 -142 0
-11 143 0
-143 144 0
-12 -143 145 0
-145 146 0
-13 -145 147 0
-147 148 0
-14 -147 0
-12 144 0
-13 -144 146 0
-14 -146 148 0
-15 -148 0
11 149 0
-149 150 0
12 -149 151 0
-151 152 0
13 -151 153 0
-153 154 0
14 -153 0
12 150 0
13 -150 152 0
14 -152 154 0
15 -154 0
-12 155 0
-155 156 0
-13 -155 157 0
-157 158 0
-14 -157 159 0
-159 160 0
-15 -159 0
-13 156 0
-14 -156 158 0
-15 -158 160 0
-16 -160 0
12 161 0
-161 162 0
13 -161 163 0
-163 164 0
14 -163 165 0
-165 166 0
15 -165 0
13 162 0
14 -162 164 0
15 -164 166 0
16 -166 0
-13 167 0
-167 168 0
-14 -167 169 0
-169 170 0
-15 -169 171 0
-171 172 0
-16 -171 0
-14 168 0
-15 -168 170 0
-16 -170 172 0
-17 -172 0
13 173 0
-173 174 0
14 -173 175 0
-175 176 0
15 -175 177 0
-177 178 0
16 -177 0
14 174 0
15 -174 176 0
16 -176 178 0
17 -178 0
-14 179 0
-179 180 0
-15 -179 181 0
-181 182 0
-16 -181 183 0
-183 184 0
-17 -183 0
-15 180 0
-16 -180 182 0
-17 -182 184 0
-18 -184 0
14 185 0
-185 186 0
15 -185 187 0
-187 188 0
16 -187 189 0
-189 190 0
17 -189 0
15 186 0
16 -186 188 0
17 -188 190 0
18 -190 0
-15 191 0
-191 192 0
-16 -191 193 0
-193 194 0
-17 -193 195 0
-195 196 0
-18 -195 0
-16 192 0
-17 -192 194 0
-18 -194 196 0
-19 -196 0
15 197 0
-197 198 0
16 -197 199 0
-199 200 0
17 -199 201 0
-201 202 0
18 -201 0
16 198 0
17 -198 200 0
18 -200 202 0
19 -202 0
-16 203 0
-203 204 0
-17 -203 205 0
-205 206 0
-18 -205 207 0
-207 208 0
-19 -207 0
-17 204 0
-18 -204 206 0
-19 -206 208 0
-20 -208 0
16 209 0
-209 210 0
17 -209 211 0
-211 212 0
18 -211 213 0
-213 214 0
19 -213 0
17 210 0
18 -210 212 0
19 -212 214 0
20 -214 0
-17 215 0
-215 216 0
-18 -215 217 0
-217 218 0
-19 -217 219 0
-219 220 0
-20 -219 0
-18 216 0
-19 -216 218 0
-20 -218 220 0
-21 -220 0
17 221 0
-221 222 0
18 -221 223 0
-223 224 0
19 -223 225 0
-225 226 0
20 -225 0
18 222 0
19 -222 224 0
20 -224 226 0
21 -226 0
-18 227 0
-227 228 0
-19 -227 229 0
-229 230 0
-20 -229 231 0
-231 232 0
-21 -231 0
-19 228 0
-20 -228 230 0
-21 -230 232 0
-22 -232 0
18 233 0
-233 234 0
19 -233 235 0
-235 236 0
20 -235 237 0
-237 238 0
21 -237 0
19 234 0
20 -234 236 0
21 -236 238 0
22 -238 0
-1 239 0
-239 240 0
-3 -239 241 0
-241 242 0
-5 -241 243 0
-243 244 0
-7 -243 0
-3 240 0
-5 -240 242 0
-7 -242 244 0
-9 -244 0
1 245 0
-245 246 0
3 -245 247 0
-247 248 0
5 -247 249 0
-249 250 0
7 -249 0
3 246 0
5 -246 248 0
7 -248 250 0
9 -250 0
-2 251 0
-251 252 0
-4 -251 253 0
-253 254 0
-6 -253 255 0
-255 256 0
-8 -255 0
-4 252 0
-6 -252 254 0
-8 -254 256 0
-10 -256 0
2 257 0
-257 258 0
4 -257 259 0
-259 260 0
6 -259 261 0
-261 262 0
8 -261 0
4 258 0
6 -258 260 0
8 -260 262 0
10 -262 0
-3 263 0
-263 264 0
-5 -263 265 0
-265 266 0
-7 -265 267 0
-267 268 0
-9 -267 0
-5 264 0
-7 -264 266 0
-9 -266 268 0
-11 -268 0
3 269 0
-269 270 0
5 -269 271 0
-271 272 0
7 -271 273 0
-273 274 0
9 -273 0
5 270 0
7 -270 272 0
9 -272 274 0
11 -274 0
-4 275 0
-275 276 0
-6 -275 277 0
-277 278 0
-8 -277 279 0
-279 280 0
-10 -279 0
-6 276 0
-8 -276 278 0
-10 -278 280 0
-12 -280 0
4 281 0
-281 282 0
6 -281 283 0
-283 284 0
8 -283 285 0
-285 286 0
10 -285 0
6 282 0
8 -282 284 0
10 -284 286 0
12 -286 0
-5 287 0
-287 288 0
-7 -287 289 0
-289 290 0
-9 -289 291 0
-291 292 0
-11 -291 0
-7 288 0
-9 -288 290 0
-11 -290 292 0
-13 -292 0
5 293 0
-293 294 0
7 -293 295 0
-295 296 0
9 -295 297 0
-297 298 0
11 -297 0
7 294 0
9 -294 296 0
11 -296 298 0
13 -298 0
-6 299 0
-299 300 0
-8 -299 301 0
-301 302 0
-10 -301 303 0
-303 304 0
-12 -303 0
-8 300 0
-10 -300 302 0
-12 -302 304 0
-14 -304 0
6 305 0
-305 306 0
8 -305 307 0
-307 308 0
10 -307 309 0
-309 310 0
12 -309 0
8 306 0
10 -306 308 0
12 -308 310 0
14 -310 0
-7 311 0
-311 312 0
-9 -311 313 0
-313 314 0
-11 -313 315 0
-315 316 0
-13 -315 0
-9 312 0
-11 -312 314 0
-13 -314 316 0
-15 -316 0
7 317 0
-317 318 0
9 -317 319 0
-319 320 0
11 -319 321 0
-321 322 0
13 -321 0
9 318 0
11 -318 320 0
13 -320 322 0
15 -322 0
-8 323 0
-323 324 0
-10 -323 325 0
-325 326 0
-12 -325 327 0
-327 328 0
-14 -327 0
-10 324 0
-12 -324 326 0
-14 -326 328 0
-16 -328 0
8 329 0
-329 330 0
10 -329 331 0
-331 332 0
12 -331 333 0
-333 334 0
14 -333 0
10 330 0
12 -330 332 0
14 -332 334 0
16 -334 0
-9 335 0
-335 336 0
-11 -335 337 0
-337 338 0
-13 -337 339 0
-339 340 0
-15 -339 0
-11 336 0
-13 -336 338 0
-15 -338 340 0
-17 -340 0
9 341 0
-341 342 0
11 -341 343 0
-343 344 0
13 -343 345 0
-345 346 0
15 -345 0
11 342 0
13 -342 344 0
15 -344 346 0
17 -346 0
-10 347 0
-347 348 0
-12 -347 349 0
-349 350 0
-14 -349 351 0
-351 352 0
-16 -351 0
-12 348 0
-14 -348 350 0
-16 -350 352 0
-18 -352 0
10 353 0
-353 354 0
12 -353 355 0
-355 356 0
14 -355 357 0
-357 358 0
16 -357 0
12 354 0
14 -354 356 0
16 -356 358 0
18 -358 0
-11 359 0
-359 360 0
-13 -359 361 0
-361 362 0
-15 -361 363 0
-363 364 0
-17 -363 0
-13 360 0
-15 -360 362 0
-17 -362 364 0
-19 -364 0
11 365 0
-365 366 0
13 -365 367 0
-367 368 0
15 -367 369 0
-369 370 0
17 -369 0
13 366 0
15 -366 368 0
17 -368 370 0
19 -370 0
-12 371 0
-371 372 0
-14 -371 373 0
-373 374 0
-16 -373 375 0
-375 376 0
-18 -375 0
-14 372 0
-16 -372 374 0
-18 -374 376 0
-20 -376 0
12 377 0
-377 378 0
14 -377 379 0
-379 380 0
16 -379 381 0
-381 382 0
18 -381 0
14 378 0
16 -378 380 0
18 -380 382 0
20 -382 0
-13 383 0
-383 384 0
-15 -383 385 0
-385 386 0
-17 -385 387 0
-387 388 0
-19 -387 0
-15 384 0
-17 -384 386 0
-19 -386 388 0
-21 -388 0
13 389 0
-389 390 0
15 -389 391 0
-391 392 0
17 -391 393 0
-393 394 0
19 -393 0
15 390 0
17 -390 392 0
19 -392 394 0
21 -394 0
-14 395 0
-395 396 0
-16 -395 397 0
-397 398 0
-18 -397 399 0
-399 400 0
-20 -399 0
-16 396 0
-18 -396 398 0
-20 -398 400 0
-22 -400 0
14 401 0
-401 402 0
16 -401 403 0
-403 404 0
18 -403 405 0
-405 406 0
20 -405 0
16 402 0
18 -402 404 0
20 -404 406 0
22 -406 0
-1 407 0
-407 408 0
-4 -407 409 0
-409 410 0
-7 -409 411 0
-411 412 0
-10 -411 0
-4 408 0
-7 -408 410 0
-10 -410 412 0
-13 -412 0
1 413 0
-413 414 0
4 -413 415 0
-415 416 0
7 -415 417 0
-417 418 0
10 -417 0
4 414 0
7 -414 416 0
10 -416 418 0
13 -418 0
-2 419 0
-419 420 0
-5 -419 421 0
-421 422 0
-8 -421 423 0
-423 424 0
-11 -423 0
-5 420 0
-8 -420 422 0
-11 -422 424 0
-14 -424 0
2 425 0
-425 426 0
5 -425 427 0
-427 428 0
8 -427 429 0
-429 430 0
11 -429 0
5 426 0
8 -426 428 0
11 -428 430 0
14 -430 0
-3 431 0
-431 432 0
-6 -431 433 0
-433 434 0
-9 -433 435 0
-435 436 0
-12 -435 0
-6 432 0
-9 -432 434 0
-12 -434 436 0
-15 -436 0
3 437 0
-437 438 0
6 -437 439 0
-439 440 0
9 -439 441 0
-441 442 0
12 -441 0
6 438 0
9 -438 440 0
12 -440 442 0
15 -442 0
-4 443 0
-443 444 0
-7 -443 445 0
-445 446 0
-10 -445 447 0
-447 448 0
-13 -447 0
-7 444 0
-10 -444 446 0
-13 -446 448 0
-16 -448 0
4 449 0
-449 450 0
7 -449 451 0
-451 452 0
10 -451 453 0
-453 454 0
13 -453 0
7 450 0
10 -450 452 0
13 -452 454 0
16 -454 0
-5 455 0
-455 456 0
-8 -455 457 0
-457 458 0
-11 -457 459 0
-459 460 0
-14 -459 0
-8 456 0
-11 -456 458 0
-14 -458 460 0
-17 -460 0
5 461 0
-461 462 0
8 -461 463 0
-463 464 0
11 -463 465 0
-465 466 0
14 -465 0
8 462 0
11 -462 464 0
14 -464 466 0
17 -466 0
-6 467 0
-467 468 0
-9 -467 469 0
-469 470 0
-12 -469 471 0
-471 472 0
-15 -471 0
-9 468 0
-12 -468 470 0
-15 -470 472 0
-18 -472 0
6 473 0
-473 474 0
9 -473 475 0
-475 476 0
12 -475 477 0
-477 478 0
15 -477 0
9 474 0
12 -474 476 0
15 -476 478 0
18 -478 0
-7 479 0
-479 480 0
-10 -479 481 0
-481 482 0
-13 -481 483 0
-483 484 0
-16 -483 0
-10 480 0
-13 -480 482 0
-16 -482 484 0
-19 -484 0
7 485 0
-485 486 0
10 -485 487 0
-487 488 0
13 -487 489 0
-489 490 0
16 -489 0
10 486 0
13 -486 488 0
16 -488 490 0
19 -490 0
-8 491 0
-491 492 0
-11 -491 493 0
-493 494 0
-14 -493 495 0
-495 496 0
-17 -495 0
-11 492 0
-14 -492 494 0
-17 -494 496 0
-20 -496 0
8 497 0
-497 498 0
11 -497 499 0
-499 500 0
14 -499 501 0
-501 502 0
17 -501 0
11 498 0
14 -498 500 0
17 -500 502 0
20 -502 0
-9 503 0
-503 504 0
-12 -503 505 0
-505 506 0
-15 -505 507 0
-507 508 0
-18 -507 0
-12 504 0
-15 -504 506 0
-18 -506 508 0
-21 -508 0
9 509 0
-509 510 0
12 -509 511 0
-511 512 0
15 -511 513 0
-513 514 0
18 -513 0
12 510 0
15 -510 512 0
18 -512 514 0
21 -514 0
-10 515 0
-515 516 0
-13 -515 517 0
-517 518 0
-16 -517 519 0
-519 520 0
-19 -519 0
-13 516 0
-16 -516 518 0
-19 -518 520 0
-22 -520 0
10 521 0
-521 522 0
13 -521 523 0
-523 524 0
16 -523 525 0
-525 526 0
19 -525 0
13 522 0
16 -522 524 0
19 -524 526 0
22 -526 0
-1 527 0
-527 528 0
-5 -527 529 0
-529 530 0
-9 -529 531 0
-531 532 0
-13 -531 0
-5 528 0
-9 -528 530 0
-13 -530 532 0
-17 -532 0
1 533 0
-533 534 0
5 -533 535 0
-535 536 0
9 -535 537 0
-537 538 0
13 -537 0
5 534 0
9 -534 536 0
13 -536 538 0
17 -538 0
-2 539 0
-539 540 0
-6 -539 541 0
-541 542 0
-10 -541 543 0
-543 544 0
-14 -543 0
-6 540 0
-10 -540 542 0
-14 -542 544 0
-18 -544 0
2 545 0
-545 546 0
6 -545 547 0
-547 548 0
10 -547 549 0
-549 550 0
14 -549 0
6 546 0
10 -546 548 0
14 -548 550 0
18 -550 0
-3 551 0
-551 552 0
-7 -551 553 0
-553 554 0
-11 -553 555 0
-555 556 0
-15 -555 0
-7 552 0
-11 -552 554 0
-15 -554 556 0
-19 -556 0
3 557 0
-557 558 0
7 -557 559 0
-559 560 0
11 -559 561 0
-561 562 0
15 -561 0
7 558 0
11 -558 560 0
15 -560 562 0
19 -562 0
-4 563 0
-563 564 0
-8 -563 565 0
-565 566 0
-12 -565 567 0
-567 568 0
-16 -567 0
-8 564 0
-12 -564 566 0
-16 -566 568 0
-20 -568 0
4 569 0
-569 570 0
8 -569 571 0
-571 572 0
12 -571 573 0
-573 574 0
16 -573 0
8 570 0
12 -570 572 0
16 -572 574 0
20 -574 0
-5 575 0
-575 576 0
-9 -575 577 0
-577 578 0
-13 -577 579 0
-579 580 0
-17 -579 0
-9 576 0
-13 -576 578 0
-17 -578 580 0
-21 -580 0
5 581 0
-581 582 0
9 -581 583 0
-583 584 0
13 -583 585 0
-585 586 0
17 -585 0
9 582 0
13 -582 584 0
17 -584 586 0
21 -586 0
-6 587 0
-587 588 0
-10 -587 589 0
-589 590 0
-14 -589 591 0
-591 592 0
-18 -591 0
-10 588 0
-14 -588 590 0
-18 -590 592 0
-22 -592 0
6 593 0
-593 594 0
10 -593 595 0
-595 596 0
14 -595 597 0
-597 598 0
18 -597 0
10 594 0
14 -594 596 0
18 -596 598 0
22 -598 0
-1 599 0
-599 600 0
-6 -599 601 0
-601 602 0
-11 -601 603 0
-603 604 0
-16 -603 0
-6 600 0
-11 -600 602 0
-16 -602 604 0
-21 -604 0
1 605 0
-605 606 0
6 -605 607 0
-607 608 0
11 -607 609 0
-609 610 0
16 -609 0
6 606 0
11 -606 608 0
16 -608 610 0
21 -610 0
-2 611 0
-611 612 0
-7 -611 613 0
-613 614 0
-12 -613 615 0
-615 616 0
-17 -615 0
-7 612 0
-12 -612 614 0
-17 -614 616 0
-22 -616 0
2 617 0
-617 618 0
7 -617 619 0
-619 620 0
12 -619 621 0
-621 622 0
17 -621 0
7 618 0
12 -618 620 0
17 -620 622 0
22 -622 0
