p cnf 2538 4368
-1 43 0
-43 44 0
-2 -43 45 0
-45 46 0
-3 -45 47 0
-47 48 0
-4 -47 49 0
-49 50 0
-5 -49 0
-2 44 0
-3 -44 46 0
-4 -46 48 0
-5 -48 50 0
-6 -50 0
1 51 0
-51 52 0
2 -51 53 0
-53 54 0
3 -53 55 0
-55 56 0
4 -55 57 0
-57 58 0
5 -57 0
2 52 0
3 -52 54 0
4 -54 56 0
5 -56 58 0
6 -58 0
-2 59 0
-59 60 0
-3 -59 61 0
-61 62 0
-4 -61 63 0
-63 64 0
-5 -63 65 0
-65 66 0
-6 -65 0
-3 60 0
-4 -60 62 0
-5 -62 64 0
-6 -64 66 0
-7 -66 0
2 67 0
-67 68 0
3 -67 69 0
-69 70 0
4 -69 71 0
-71 72 0
5 -71 73 0
-73 74 0
6 -73 0
3 68 0
4 -68 70 0
5 -70 72 0
6 -72 74 0
7 -74 0
-3 75 0
-75 76 0
-4 -75 77 0
-77 78 0
-5 -77 79 0
-79 80 0
-6 -79 81 0
-81 82 0
-7 -81 0
-4 76 0
-5 -76 78 0
-6 -78 80 0
-7 -80 82 0
-8 -82 0
3 83 0
-83 84 0
4 -83 85 0
-85 86 0
5 -85 87 0
-87 88 0
6 -87 89 0
-89 90 0
7 -89 0
4 84 0
5 -84 86 0
6 -86 88 0
7 -88 90 0
8 -90 0
-4 91 0
-91 92 0
-5 -91 93 0
-93 94 0
-6 -93 95 0
-95 96 0
-7 -95 97 0
-97 98 0
-8 -97 0
-5 92 0
-6 -92 94 0
-7 -94 96 0
-8 -96 98 0
-9 -98 0
4 99 0
-99 100 0
5 -99 101 0
-101 102 0
6 -101 103 0
-103 104 0
7 -103 105 0
-105 106 0
8 -105 0
5 100 0
6 -100 102 0
7 -102 104 0
8 -104 106 0
9 -106 0
-5 107 0
-107 108 0
-6 -107 109 0
-109 110 0
-7 -109 111 0
-111 112 0
-8 -111 113 0
-113 114 0
-9 -113 0
-6 108 0
-7 -108 110 0
-8 -110 112 0
-9 -112 114 0
-10 -114 0
5 115 0
-115 116 0
6 -115 117 0
-117 118 0
7 -117 119 0
-119 120 0
8 -119 121 0
-121 122 0
9 -121 0
6 116 0
7 -116 118 0
8 -118 120 0
9 -120 122 0
10 -122 0
-6 123 0
-123 124 0
-7 -123 125 0
-125 126 0
-8 -125 127 0
-127 128 0
-9 -127 129 0
-129 130 0
-10 -129 0
-7 124 0
-8 -124 126 0
-9 -126 128 0
-10 -128 130 0
-11 -130 0
6 131 0
-131 132 0
7 -131 133 0
-133 134 0
8 -133 135 0
-135 136 0
9 -135 137 0
-137 138 0
10 -137 0
7 132 0
8 -132 134 0
9 -134 136 0
10 -136 138 0
11 -138 0
-7 139 0
-139 140 0
-8 -139 141 0
-141 142 0
-9 -141 143 0
-143 144 0
-10 -143 145 0
-145 146 0
-11 -145 0
-8 140 0
-9 -140 142 0
-10 -142 144 0
-11 -144 146 0
-12 -146 0
7 147 0
-147 148 0
8 -147 149 0
-149 150 0
9 -149 151 0
-151 152 0
10 -151 153 0
-153 154 0
11 -153 0
8 148 0
9 -148 150 0
10 -150 152 0
11 -152 154 0
12 -154 0
-8 155 0
-155 156 0
-9 -155 157 0
-157 158 0
-10 -157 159 0
-159 160 0
-11 -159 161 0
-161 162 0
-12 -161 0
-9 156 0
-10 -156 158 0
-11 -158 160 0
-12 -160 162 0
-13 -162 0
8 163 0
-163 164 0
9 -163 165 0
-165 166 0
10 -165 167 0
-167 168 0
11 -167 169 0
-169 170 0
12 -169 0
9 164 0
10 -164 166 0
11 -166 168 0
12 -168 170 0
13 -170 0
-9 171 0
-171 172 0
-10 -171 173 0
-173 174 0
-11 -173 175 0
-175 176 0
-12 -175 177 0
-177 178 0
-13 -177 0
-10 172 0
-11 -172 174 0
-12 -174 176 0
-13 -176 178 0
-14 -178 0
9 179 0
-179 180 0
10 -179 181 0
-181 182 0
11 -181 183 0
-183 184 0
12 -183 185 0
-185 186 0
13 -185 0
10 180 0
11 -180 182 0
12 -182 184 0
13 -184 186 0
14 -186 0
-10 187 0
-187 188 0
-11 -187 189 0
-189 190 0
-12 -189 191 0
-191 192 0
-13 -191 193 0
-193 194 0
-14 -193 0
-11 188 0
-12 -188 190 0
-13 -190 192 0
-14 -192 194 0
-15 -194 0
10 195 0
-195 196 0
11 -195 197 0
-197 198 0
12 -197 199 0
-199 200 0
13 -199 201 0
-201 202 0
14 -201 0
11 196 0
12 -196 198 0
13 -198 200 0
14 -200 202 0
15 -202 0
-11 203 0
-203 204 0
-12 -203 205 0
-205 206 0
-13 -205 207 0
-207 208 0
-14 -207 209 0
-209 210 0
-15 -209 0
-12 204 0
-13 -204 206 0
-14 -206 208 0
-15 -208 210 0
-16 -210 0
11 211 0
-211 212 0
12 -211 213 0
-213 214 0
13 -213 215 0
-215 216 0
14 -215 217 0
-217 218 0
15 -217 0
12 212 0
13 -212 214 0
14 -214 216 0
15 -216 218 0
16 -218 0
-12 219 0
-219 220 0
-13 -219 221 0
-221 222 0
-14 -221 223 0
-223 224 0
-15 -223 225 0
-225 226 0
-16 -225 0
-13 220 0
-14 -220 222 0
-15 -222 224 0
-16 -224 226 0
-17 -226 0
12 227 0
-227 228 0
13 -227 229 0
-229 230 0
14 -229 231 0
-231 232 0
15 -231 233 0
-233 234 0
16 -233 0
13 228 0
14 -228 230 0
15 -230 232 0
16 -232 234 0
17 -234 0
-13 235 0
-235 236 0
-14 -235 237 0
-237 238 0
-15 -237 239 0
-239 240 0
-16 -239 241 0
-241 242 0
-17 -241 0
-14 236 0
-15 -236 238 0
-16 -238 240 0
-17 -240 242 0
-18 -242 0
13 243 0
-243 244 0
14 -243 245 0
-245 246 0
15 -245 247 0
-247 248 0
16 -247 249 0
-249 250 0
17 -249 0
14 244 0
15 -244 246 0
16 -246 248 0
17 -248 250 0
18 -250 0
-14 251 0
-251 252 0
-15 -251 253 0
-253 254 0
-16 -253 255 0
-255 256 0
-17 -255 257 0
-257 258 0
-18 -257 0
-15 252 0
-16 -252 254 0
-17 -254 256 0
-18 -256 258 0
-19 -258 0
14 259 0
-259 260 0
15 -259 261 0
-261 262 0
16 -261 263 0
-263 264 0
17 -263 265 0
-265 266 0
18 -265 0
15 260 0
16 -260 262 0
17 -262 264 0
18 -264 266 0
19 -266 0
-15 267 0
-267 268 0
-16 -267 269 0
-269 270 0
-17 -269 271 0
-271 272 0
-18 -271 273 0
-273 274 0
-19 -273 0
-16 268 0
-17 -268 270 0
-18 -270 272 0
-19 -272 274 0
-20 -274 0
15 275 0
-275 276 0
16 -275 277 0
-277 278 0
17 -277 279 0
-279 280 0
18 -279 281 0
-281 282 0
19 -281 0
16 276 0
17 -276 278 0
18 -278 280 0
19 -280 282 0
20 -282 0
-16 283 0
-283 284 0
-17 -283 285 0
-285 286 0
-18 -285 287 0
-287 288 0
-19 -287 289 0
-289 290 0
-20 -289 0
-17 284 0
-18 -284 286 0
-19 -286 288 0
-20 -288 290 0
-21 -290 0
16 291 0
-291 292 0
17 -291 293 0
-293 294 0
18 -293 295 0
-295 296 0
19 -295 297 0
-297 298 0
20 -297 0
17 292 0
18 -292 294 0
19 -294 296 0
20 -296 298 0
21 -298 0
-17 299 0
-299 300 0
-18 -299 301 0
-301 302 0
-19 -301 303 0
-303 304 0
-20 -303 305 0
-305 306 0
-21 -305 0
-18 300 0
-19 -300 302 0
-20 -302 304 0
-21 -304 306 0
-22 -306 0
17 307 0
-307 308 0
18 -307 309 0
-309 310 0
19 -309 311 0
-311 312 0
20 -311 313 0
-313 314 0
21 -313 0
18 308 0
19 -308 310 0
20 -310 312 0
21 -312 314 0
22 -314 0
-18 315 0
-315 316 0
-19 -315 317 0
-317 318 0
-20 -317 319 0
-319 320 0
-21 -319 321 0
-321 322 0
-22 -321 0
-19 316 0
-20 -316 318 0
-21 -318 320 0
-22 -320 322 0
-23 -322 0
18 323 0
-323 324 0
19 -323 325 0
-325 326 0
20 -325 327 0
-327 328 0
21 -327 329 0
-329 330 0
22 -329 0
19 324 0
20 -324 326 0
21 -326 328 0
22 -328 330 0
23 -330 0
-19 331 0
-331 332 0
-20 -331 333 0
-333 334 0
-21 -333 335 0
-335 336 0
-22 -335 337 0
-337 338 0
-23 -337 0
-20 332 0
-21 -332 334 0
-22 -334 336 0
-23 -336 338 0
-24 -338 0
19 339 0
-339 340 0
20 -339 341 0
-341 342 0
21 -341 343 0
-343 344 0
22 -343 345 0
-345 346 0
23 -345 0
20 340 0
21 -340 342 0
22 -342 344 0
23 -344 346 0
24 -346 0
-20 347 0
-347 348 0
-21 -347 349 0
-349 350 0
-22 -349 351 0
-351 352 0
-23 -351 353 0
-353 354 0
-24 -353 0
-21 348 0
-22 -348 350 0
-23 -350 352 0
-24 -352 354 0
-25 -354 0
20 355 0
-355 356 0
21 -355 357 0
-357 358 0
22 -357 359 0
-359 360 0
23 -359 361 0
-361 362 0
24 -361 0
21 356 0
22 -356 358 0
23 -358 360 0
24 -360 362 0
25 -362 0
-21 363 0
-363 364 0
-22 -363 365 0
-365 366 0
-23 -365 367 0
-367 368 0
-24 -367 369 0
-369 370 0
-25 -369 0
-22 364 0
-23 -364 366 0
-24 -366 368 0
-25 -368 370 0
-26 -370 0
21 371 0
-371 372 0
22 -371 373 0
-373 374 0
23 -373 375 0
-375 376 0
24 -375 377 0
-377 378 0
25 -377 0
22 372 0
23 -372 374 0
24 -374 376 0
25 -376 378 0
26 -378 0
-22 379 0
-379 380 0
-23 -379 381 0
-381 382 0
-24 -381 383 0
-383 384 0
-25 -383 385 0
-385 386 0
-26 -385 0
-23 380 0
-24 -380 382 0
-25 -382 384 0
-26 -384 386 0
-27 -386 0
22 387 0
-387 388 0
23 -387 389 0
-389 390 0
24 -389 391 0
-391 392 0
25 -391 393 0
-393 394 0
26 -393 0
23 388 0
24 -388 390 0
25 -390 392 0
26 -392 394 0
27 -394 0
-23 395 0
-395 396 0
-24 -395 397 0
-397 398 0
-25 -397 399 0
-399 400 0
-26 -399 401 0
-401 402 0
-27 -401 0
-24 396 0
-25 -396 398 0
-26 -398 400 0
-27 -400 402 0
-28 -402 0
23 403 0
-403 404 0
24 -403 405 0
-405 406 0
25 -405 407 0
-407 408 0
26 -407 409 0
-409 410 0
27 -409 0
24 404 0
25 -404 406 0
26 -406 408 0
27 -408 410 0
28 -410 0
-24 411 0
-411 412 0
-25 -411 413 0
-413 414 0
-26 -413 415 0
-415 416 0
-27 -415 417 0
-417 418 0
-28 -417 0
-25 412 0
-26 -412 414 0
-27 -414 416 0
-28 -416 418 0
-29 -418 0
24 419 0
-419 420 0
25 -419 421 0
-421 422 0
26 -421 423 0
-423 424 0
27 -423 425 0
-425 426 0
28 -425 0
25 420 0
26 -420 422 0
27 -422 424 0
28 -424 426 0
29 -426 0
-25 427 0
-427 428 0
-26 -427 429 0
-429 430 0
-27 -429 431 0
-431 432 0
-28 -431 433 0
-433 434 0
-29 -433 0
-26 428 0
-27 -428 430 0
-28 -430 432 0
-29 -432 434 0
-30 -434 0
25 435 0
-435 436 0
26 -435 437 0
-437 438 0
27 -437 439 0
-439 440 0
28 -439 441 0
-441 442 0
29 -441 0
26 436 0
27 -436 438 0
28 -438 440 0
29 -440 442 0
30 -442 0
-26 443 0
-443 444 0
-27 -443 445 0
-445 446 0
-28 -445 447 0
-447 448 0
-29 -447 449 0
-449 450 0
-30 -449 0
-27 444 0
-28 -444 446 0
-29 -446 448 0
-30 -448 450 0
-31 -450 0
26 451 0
-451 452 0
27 -451 453 0
-453 454 0
28 -453 455 0
-455 456 0
29 -455 457 0
-457 458 0
30 -457 0
27 452 0
28 -452 454 0
29 -454 456 0
30 -456 458 0
31 -458 0
-27 459 0
-459 460 0
-28 -459 461 0
-461 462 0
-29 -461 463 0
-463 464 0
-30 -463 465 0
-465 466 0
-31 -465 0
-28 460 0
-29 -460 462 0
-30 -462 464 0
-31 -464 466 0
-32 -466 0
27 467 0
-467 468 0
28 -467 469 0
-469 470 0
29 -469 471 0
-471 472 0
30 -471 473 0
-473 474 0
31 -473 0
28 468 0
29 -468 470 0
30 -470 472 0
31 -472 474 0
32 -474 0
-28 475 0
-475 476 0
-29 -475 477 0
-477 478 0
-30 -477 479 0
-479 480 0
-31 -479 481 0
-481 482 0
-32 -481 0
-29 476 0
-30 -476 478 0
-31 -478 480 0
-32 -480 482 0
-33 -482 0
28 483 0
-483 484 0
29 -483 485 0
-485 486 0
30 -485 487 0
-487 488 0
31 -487 489 0
-489 490 0
32 -489 0
29 484 0
30 -484 486 0
31 -486 488 0
32 -488 490 0
33 -490 0
-29 491 0
-491 492 0
-30 -491 493 0
-493 494 0
-31 -493 495 0
-495 496 0
-32 -495 497 0
-497 498 0
-33 -497 0
-30 492 0
-31 -492 494 0
-32 -494 496 0
-33 -496 498 0
-34 -498 0
29 499 0
-499 500 0
30 -499 501 0
-501 502 0
31 -501 503 0
-503 504 0
32 -503 505 0
-505 506 0
33 -505 0
30 500 0
31 -500 502 0
32 -502 504 0
33 -504 506 0
34 -506 0
-30 507 0
-507 508 0
-31 -507 509 0
-509 510 0
-32 -509 511 0
-511 512 0
-33 -511 513 0
-513 514 0
-34 -513 0
-31 508 0
-32 -508 510 0
-33 -510 512 0
-34 -512 514 0
-35 -514 0
30 515 0
-515 516 0
31 -515 517 0
-517 518 0
32 -517 519 0
-519 520 0
33 -519 521 0
-521 522 0
34 -521 0
31 516 0
32 -516 518 0
33 -518 520 0
34 -520 522 0
35 -522 0
-31 523 0
-523 524 0
-32 -523 525 0
-525 526 0
-33 -525 527 0
-527 528 0
-34 -527 529 0
-529 530 0
-35 -529 0
-32 524 0
-33 -524 526 0
-34 -526 528 0
-35 -528 530 0
-36 -530 0
31 531 0
-531 532 0
32 -531 533 0
-533 534 0
33 -533 535 0
-535 536 0
34 -535 537 0
-537 538 0
35 -537 0
32 532 0
33 -532 534 0
34 -534 536 0
35 -536 538 0
36 -538 0
-32 539 0
-539 540 0
-33 -539 541 0
-541 542 0
-34 -541 543 0
-543 544 0
-35 -543 545 0
-545 546 0
-36 -545 0
-33 540 0
-34 -540 542 0
-35 -542 544 0
-36 -544 546 0
-37 -546 0
32 547 0
-547 548 0
33 -547 549 0
-549 550 0
34 -549 551 0
-551 552 0
35 -551 553 0
-553 554 0
36 -553 0
33 548 0
34 -548 550 0
35 -550 552 0
36 -552 554 0
37 -554 0
-33 555 0
-555 556 0
-34 -555 557 0
-557 558 0
-35 -557 559 0
-559 560 0
-36 -559 561 0
-561 562 0
-37 -561 0
-34 556 0
-35 -556 558 0
-36 -558 560 0
-37 -560 562 0
-38 -562 0
33 563 0
-563 564 0
34 -563 565 0
-565 566 0
35 -565 567 0
-567 568 0
36 -567 569 0
-569 570 0
37 -569 0
34 564 0
35 -564 566 0
36 -566 568 0
37 -568 570 0
38 -570 0
-34 571 0
-571 572 0
-35 -571 573 0
-573 574 0
-36 -573 575 0
-575 576 0
-37 -575 577 0
-577 578 0
-38 -577 0
-35 572 0
-36 -572 574 0
-37 -574 576 0
-38 -576 578 0
-39 -578 0
34 579 0
-579 580 0
35 -579 581 0
-581 582 0
36 -581 583 0
-583 584 0
37 -583 585 0
-585 586 0
38 -585 0
35 580 0
36 -580 582 0
37 -582 584 0
38 -584 586 0
39 -586 0
-35 587 0
-587 588 0
-36 -587 589 0
-589 590 0
-37 -589 591 0
-591 592 0
-38 -591 593 0
-593 594 0
-39 -593 0
-36 588 0
-37 -588 590 0
-38 -590 592 0
-39 -592 594 0
-40 -594 0
35 595 0
-595 596 0
36 -595 597 0
-597 598 0
37 -597 599 0
-599 600 0
38 -599 601 0
-601 602 0
39 -601 0
36 596 0
37 -596 598 0
38 -598 600 0
39 -600 602 0
40 -602 0
-36 603 0
-603 604 0
-37 -603 605 0
-605 606 0
-38 -605 607 0
-607 608 0
-39 -607 609 0
-609 610 0
-40 -609 0
-37 604 0
-38 -604 606 0
-39 -606 608 0
-40 -608 610 0
-41 -610 0
36 611 0
-611 612 0
37 -611 613 0
-613 614 0
38 -613 615 0
-615 616 0
39 -615 617 0
-617 618 0
40 -617 0
37 612 0
38 -612 614 0
39 -614 616 0
40 -616 618 0
41 -618 0
-37 619 0
-619 620 0
-38 -619 621 0
-621 622 0
-39 -621 623 0
-623 624 0
-40 -623 625 0
-625 626 0
-41 -625 0
-38 620 0
-39 -620 622 0
-40 -622 624 0
-41 -624 626 0
-42 -626 0
37 627 0
-627 628 0
38 -627 629 0
-629 630 0
39 -629 631 0
-631 632 0
40 -631 633 0
-633 634 0
41 -633 0
38 628 0
39 -628 630 0
40 -630 632 0
41 -632 634 0
42 -634 0
-1 635 0
-635 636 0
-3 -635 637 0
-637 638 0
-5 -637 639 0
-639 640 0
-7 -639 641 0
-641 642 0
-9 -641 0
-3 636 0
-5 -636 638 0
-7 -638 640 0
-9 -640 642 0
-11 -642 0
1 643 0
-643 644 0
3 -643 645 0
-645 646 0
5 -645 647 0
-647 648 0
7 -647 649 0
-649 650 0
9 -649 0
3 644 0
5 -644 646 0
7 -646 648 0
9 -648 650 0
11 -650 0
-2 651 0
-651 652 0
-4 -651 653 0
-653 654 0
-6 -653 655 0
-655 656 0
-8 -655 657 0
-657 658 0
-10 -657 0
-4 652 0
-6 -652 654 0
-8 -654 656 0
-10 -656 658 0
-12 -658 0
2 659 0
-659 660 0
4 -659 661 0
-661 662 0
6 -661 663 0
-663 664 0
8 -663 665 0
-665 666 0
10 -665 0
4 660 0
6 -660 662 0
8 -662 664 0
10 -664 666 0
12 -666 0
-3 667 0
-667 668 0
-5 -667 669 0
-669 670 0
-7 -669 671 0
-671 672 0
-9 -671 673 0
-673 674 0
-11 -673 0
-5 668 0
-7 -668 670 0
-9 -670 672 0
-11 -672 674 0
-13 -674 0
3 675 0
-675 676 0
5 -675 677 0
-677 678 0
7 -677 679 0
-679 680 0
9 -679 681 0
-681 682 0
11 -681 0
5 676 0
7 -676 678 0
9 -678 680 0
11 -680 682 0
13 -682 0
-4 683 0
-683 684 0
-6 -683 685 0
-685 686 0
-8 -685 687 0
-687 688 0
-10 -687 689 0
-689 690 0
-12 -689 0
-6 684 0
-8 -684 686 0
-10 -686 688 0
-12 -688 690 0
-14 -690 0
4 691 0
-691 692 0
6 -691 693 0
-693 694 0
8 -693 695 0
-695 696 0
10 -695 697 0
-697 698 0
12 -697 0
6 692 0
8 -692 694 0
10 -694 696 0
12 -696 698 0
14 -698 0
-5 699 0
-699 700 0
-7 -699 701 0
-701 702 0
-9 -701 703 0
-703 704 0
-11 -703 705 0
-705 706 0
-13 -705 0
-7 700 0
-9 -700 702 0
-11 -702 704 0
-13 -704 706 0
-15 -706 0
5 707 0
-707 708 0
7 -707 709 0
-709 710 0
9 -709 711 0
-711 712 0
11 -711 713 0
-713 714 0
13 -713 0
7 708 0
9 -708 710 0
11 -710 712 0
13 -712 714 0
15 -714 0
-6 715 0
-715 716 0
-8 -715 717 0
-717 718 0
-10 -717 719 0
-719 720 0
-12 -719 721 0
-721 722 0
-14 -721 0
-8 716 0
-10 -716 718 0
-12 -718 720 0
-14 -720 722 0
-16 -722 0
6 723 0
-723 724 0
8 -723 725 0
-725 726 0
10 -725 727 0
-727 728 0
12 -727 729 0
-729 730 0
14 -729 0
8 724 0
10 -724 726 0
12 -726 728 0
14 -728 730 0
16 -730 0
-7 731 0
-731 732 0
-9 -731 733 0
-733 734 0
-11 -733 735 0
-735 736 0
-13 -735 737 0
-737 738 0
-15 -737 0
-9 732 0
-11 -732 734 0
-13 -734 736 0
-15 -736 738 0
-17 -738 0
7 739 0
-739 740 0
9 -739 741 0
-741 742 0
11 -741 743 0
-743 744 0
13 -743 745 0
-745 746 0
15 -745 0
9 740 0
11 -740 742 0
13 -742 744 0
15 -744 746 0
17 -746 0
-8 747 0
-747 748 0
-10 -747 749 0
-749 750 0
-12 -749 751 0
-751 752 0
-14 -751 753 0
-753 754 0
-16 -753 0
-10 748 0
-12 -748 750 0
-14 -750 752 0
-16 -752 754 0
-18 -754 0
8 755 0
-755 756 0
10 -755 757 0
-757 758 0
12 -757 759 0
-759 760 0
14 -759 761 0
-761 762 0
16 -761 0
10 756 0
12 -756 758 0
14 -758 760 0
16 -760 762 0
18 -762 0
-9 763 0
-763 764 0
-11 -763 765 0
-765 766 0
-13 -765 767 0
-767 768 0
-15 -767 769 0
-769 770 0
-17 -769 0
-11 764 0
-13 -764 766 0
-15 -766 768 0
-17 -768 770 0
-19 -770 0
9 771 0
-771 772 0
11 -771 773 0
-773 774 0
13 -773 775 0
-775 776 0
15 -775 777 0
-777 778 0
17 -777 0
11 772 0
13 -772 774 0
15 -774 776 0
17 -776 778 0
19 -778 0
-10 779 0
-779 780 0
-12 -779 781 0
-781 782 0
-14 -781 783 0
-783 784 0
-16 -783 785 0
-785 786 0
-18 -785 0
-12 780 0
-14 -780 782 0
-16 -782 784 0
-18 -784 786 0
-20 -786 0
10 787 0
-787 788 0
12 -787 789 0
-789 790 0
14 -789 791 0
-791 792 0
16 -791 793 0
-793 794 0
18 -793 0
12 788 0
14 -788 790 0
16 -790 792 0
18 -792 794 0
20 -794 0
-11 795 0
-795 796 0
-13 -795 797 0
-797 798 0
-15 -797 799 0
-799 800 0
-17 -799 801 0
-801 802 0
-19 -801 0
-13 796 0
-15 -796 798 0
-17 -798 800 0
-19 -800 802 0
-21 -802 0
11 803 0
-803 804 0
13 -803 805 0
-805 806 0
15 -805 807 0
-807 808 0
17 -807 809 0
-809 810 0
19 -809 0
13 804 0
15 -804 806 0
17 -806 808 0
19 -808 810 0
21 -810 0
-12 811 0
-811 812 0
-14 -811 813 0
-813 814 0
-16 -813 815 0
-815 816 0
-18 -815 817 0
-817 818 0
-20 -817 0
-14 812 0
-16 -812 814 0
-18 -814 816 0
-20 -816 818 0
-22 -818 0
12 819 0
-819 820 0
14 -819 821 0
-821 822 0
16 -821 823 0
-823 824 0
18 -823 825 0
-825 826 0
20 -825 0
14 820 0
16 -820 822 0
18 -822 824 0
20 -824 826 0
22 -826 0
-13 827 0
-827 828 0
-15 -827 829 0
-829 830 0
-17 -829 831 0
-831 832 0
-19 -831 833 0
-833 834 0
-21 -833 0
-15 828 0
-17 -828 830 0
-19 -830 832 0
-21 -832 834 0
-23 -834 0
13 835 0
-835 836 0
15 -835 837 0
-837 838 0
17 -837 839 0
-839 840 0
19 -839 841 0
-841 842 0
21 -841 0
15 836 0
17 -836 838 0
19 -838 840 0
21 -840 842 0
23 -842 0
-14 843 0
-843 844 0
-16 -843 845 0
-845 846 0
-18 -845 847 0
-847 848 0
-20 -847 849 0
-849 850 0
-22 -849 0
-16 844 0
-18 -844 846 0
-20 -846 848 0
-22 -848 850 0
-24 -850 0
14 851 0
-851 852 0
16 -851 853 0
-853 854 0
18 -853 855 0
-855 856 0
20 -855 857 0
-857 858 0
22 -857 0
16 852 0
18 -852 854 0
20 -854 856 0
22 -856 858 0
24 -858 0
-15 859 0
-859 860 0
-17 -859 861 0
-861 862 0
-19 -861 863 0
-863 864 0
-21 -863 865 0
-865 866 0
-23 -865 0
-17 860 0
-19 -860 862 0
-21 -862 864 0
-23 -864 866 0
-25 -866 0
15 867 0
-867 868 0
17 -867 869 0
-869 870 0
19 -869 871 0
-871 872 0
21 -871 873 0
-873 874 0
23 -873 0
17 868 0
19 -868 870 0
21 -870 872 0
23 -872 874 0
25 -874 0
-16 875 0
-875 876 0
-18 -875 877 0
-877 878 0
-20 -877 879 0
-879 880 0
-22 -879 881 0
-881 882 0
-24 -881 0
-18 876 0
-20 -876 878 0
-22 -878 880 0
-24 -880 882 0
-26 -882 0
16 883 0
-883 884 0
18 -883 885 0
-885 886 0
20 -885 887 0
-887 888 0
22 -887 889 0
-889 890 0
24 -889 0
18 884 0
20 -884 886 0
22 -886 888 0
24 -888 890 0
26 -890 0
-17 891 0
-891 892 0
-19 -891 893 0
-893 894 0
-21 -893 895 0
-895 896 0
-23 -895 897 0
-897 898 0
-25 -897 0
-19 892 0
-21 -892 894 0
-23 -894 896 0
-25 -896 898 0
-27 -898 0
17 899 0
-899 900 0
19 -899 901 0
-901 902 0
21 -901 903 0
-903 904 0
23 -903 905 0
-905 906 0
25 -905 0
19 900 0
21 -900 902 0
23 -902 904 0
25 -904 906 0
27 -906 0
-18 907 0
-907 908 0
-20 -907 909 0
-909 910 0
-22 -909 911 0
-911 912 0
-24 -911 913 0
-913 914 0
-26 -913 0
-20 908 0
-22 -908 910 0
-24 -910 912 0
-26 -912 914 0
-28 -914 0
18 915 0
-915 916 0
20 -915 917 0
-917 918 0
22 -917 919 0
-919 920 0
24 -919 921 0
-921 922 0
26 -921 0
20 916 0
22 -916 918 0
24 -918 920 0
26 -920 922 0
28 -922 0
-19 923 0
-923 924 0
-21 -923 925 0
-925 926 0
-23 -925 927 0
-927 928 0
-25 -927 929 0
-929 930 0
-27 -929 0
-21 924 0
-23 -924 926 0
-25 -926 928 0
-27 -928 930 0
-29 -930 0
19 931 0
-931 932 0
21 -931 933 0
-933 934 0
23 -933 935 0
-935 936 0
25 -935 937 0
-937 938 0
27 -937 0
21 932 0
23 -932 934 0
25 -934 936 0
27 -936 938 0
29 -938 0
-20 939 0
-939 940 0
-22 -939 941 0
-941 942 0
-24 -941 943 0
-943 944 0
-26 -943 945 0
-945 946 0
-28 -945 0
-22 940 0
-24 -940 942 0
-26 -942 944 0
-28 -944 946 0
-30 -946 0
20 947 0
-947 948 0
22 -947 949 0
-949 950 0
24 -949 951 0
-951 952 0
26 -951 953 0
-953 954 0
28 -953 0
22 948 0
24 -948 950 0
26 -950 952 0
28 -952 954 0
30 -954 0
-21 955 0
-955 956 0
-23 -955 957 0
-957 958 0
-25 -957 959 0
-959 960 0
-27 -959 961 0
-961 962 0
-29 -961 0
-23 956 0
-25 -956 958 0
-27 -958 960 0
-29 -960 962 0
-31 -962 0
21 963 0
-963 964 0
23 -963 965 0
-965 966 0
25 -965 967 0
-967 968 0
27 -967 969 0
-969 970 0
29 -969 0
23 964 0
25 -964 966 0
27 -966 968 0
29 -968 970 0
31 -970 0
-22 971 0
-971 972 0
-24 -971 973 0
-973 974 0
-26 -973 975 0
-975 976 0
-28 -975 977 0
-977 978 0
-30 -977 0
-24 972 0
-26 -972 974 0
-28 -974 976 0
-30 -976 978 0
-32 -978 0
22 979 0
-979 980 0
24 -979 981 0
-981 982 0
26 -981 983 0
-983 984 0
28 -983 985 0
-985 986 0
30 -985 0
24 980 0
26 -980 982 0
28 -982 984 0
30 -984 986 0
32 -986 0
-23 987 0
-987 988 0
-25 -987 989 0
-989 990 0
-27 -989 991 0
-991 992 0
-29 -991 993 0
-993 994 0
-31 -993 0
-25 988 0
-27 -988 990 0
-29 -990 992 0
-31 -992 994 0
-33 -994 0
23 995 0
-995 996 0
25 -995 997 0
-997 998 0
27 -997 999 0
-999 1000 0
29 -999 1001 0
-1001 1002 0
31 -1001 0
25 996 0
27 -996 998 0
29 -998 1000 0
31 -1000 1002 0
33 -1002 0
-24 1003 0
-1003 1004 0
-26 -1003 1005 0
-1005 1006 0
-28 -1005 1007 0
-1007 1008 0
-30 -1007 1009 0
-1009 1010 0
-32 -1009 0
-26 1004 0
-28 -1004 1006 0
-30 -1006 1008 0
-32 -1008 1010 0
-34 -1010 0
24 1011 0
-1011 1012 0
26 -1011 1013 0
-1013 1014 0
28 -1013 1015 0
-1015 1016 0
30 -1015 1017 0
-1017 1018 0
32 -1017 0
26 1012 0
28 -1012 1014 0
30 -1014 1016 0
32 -1016 1018 0
34 -1018 0
-25 1019 0
-1019 1020 0
-27 -1019 1021 0
-1021 1022 0
-29 -1021 1023 0
-1023 1024 0
-31 -1023 1025 0
-1025 1026 0
-33 -1025 0
-27 1020 0
-29 -1020 1022 0
-31 -1022 1024 0
-33 -1024 1026 0
-35 -1026 0
25 1027 0
-1027 1028 0
27 -1027 1029 0
-1029 1030 0
29 -1029 1031 0
-1031 1032 0
31 -1031 1033 0
-1033 1034 0
33 -1033 0
27 1028 0
29 -1028 1030 0
31 -1030 1032 0
33 -1032 1034 0
35 -1034 0
-26 1035 0
-1035 1036 0
-28 -1035 1037 0
-1037 1038 0
-30 -1037 1039 0
-1039 1040 0
-32 -1039 1041 0
-1041 1042 0
-34 -1041 0
-28 1036 0
-30 -1036 1038 0
-32 -1038 1040 0
-34 -1040 1042 0
-36 -1042 0
26 1043 0
-1043 1044 0
28 -1043 1045 0
-1045 1046 0
30 -1045 1047 0
-1047 1048 0
32 -1047 1049 0
-1049 1050 0
34 -1049 0
28 1044 0
30 -1044 1046 0
32 -1046 1048 0
34 -1048 1050 0
36 -1050 0
-27 1051 0
-1051 1052 0
-29 -1051 1053 0
-1053 1054 0
-31 -1053 1055 0
-1055 1056 0
-33 -1055 1057 0
-1057 1058 0
-35 -1057 0
-29 1052 0
-31 -1052 1054 0
-33 -1054 1056 0
-35 -1056 1058 0
-37 -1058 0
27 1059 0
-1059 1060 0
29 -1059 1061 0
-1061 1062 0
31 -1061 1063 0
-1063 1064 0
33 -1063 1065 0
-1065 1066 0
35 -1065 0
29 1060 0
31 -1060 1062 0
33 -1062 1064 0
35 -1064 1066 0
37 -1066 0
-28 1067 0
-1067 1068 0
-30 -1067 1069 0
-1069 1070 0
-32 -1069 1071 0
-1071 1072 0
-34 -1071 1073 0
-1073 1074 0
-36 -1073 0
-30 1068 0
-32 -1068 1070 0
-34 -1070 1072 0
-36 -1072 1074 0
-38 -1074 0
28 1075 0
-1075 1076 0
30 -1075 1077 0
-1077 1078 0
32 -1077 1079 0
-1079 1080 0
34 -1079 1081 0
-1081 1082 0
36 -1081 0
30 1076 0
32 -1076 1078 0
34 -1078 1080 0
36 -1080 1082 0
38 -1082 0
-29 1083 0
-1083 1084 0
-31 -1083 1085 0
-1085 1086 0
-33 -1085 1087 0
-1087 1088 0
-35 -1087 1089 0
-1089 1090 0
-37 -1089 0
-31 1084 0
-33 -1084 1086 0
-35 -1086 1088 0
-37 -1088 1090 0
-39 -1090 0
29 1091 0
-1091 1092 0
31 -1091 1093 0
-1093 1094 0
33 -1093 1095 0
-1095 1096 0
35 -1095 1097 0
-1097 1098 0
37 -1097 0
31 1092 0
33 -1092 1094 0
35 -1094 1096 0
37 -1096 1098 0
39 -1098 0
-30 1099 0
-1099 1100 0
-32 -1099 1101 0
-1101 1102 0
-34 -1101 1103 0
-1103 1104 0
-36 -1103 1105 0
-1105 1106 0
-38 -1105 0
-32 1100 0
-34 -1100 1102 0
-36 -1102 1104 0
-38 -1104 1106 0
-40 -1106 0
30 1107 0
-1107 1108 0
32 -1107 1109 0
-1109 1110 0
34 -1109 1111 0
-1111 1112 0
36 -1111 1113 0
-1113 1114 0
38 -1113 0
32 1108 0
34 -1108 1110 0
36 -1110 1112 0
38 -1112 1114 0
40 -1114 0
-31 1115 0
-1115 1116 0
-33 -1115 1117 0
-1117 1118 0
-35 -1117 1119 0
-1119 1120 0
-37 -1119 1121 0
-1121 1122 0
-39 -1121 0
-33 1116 0
-35 -1116 1118 0
-37 -1118 1120 0
-39 -1120 1122 0
-41 -1122 0
31 1123 0
-1123 1124 0
33 -1123 1125 0
-1125 1126 0
35 -1125 1127 0
-1127 1128 0
37 -1127 1129 0
-1129 1130 0
39 -1129 0
33 1124 0
35 -1124 1126 0
37 -1126 1128 0
39 -1128 1130 0
41 -1130 0
-32 1131 0
-1131 1132 0
-34 -1131 1133 0
-1133 1134 0
-36 -1133 1135 0
-1135 1136 0
-38 -1135 1137 0
-1137 1138 0
-40 -1137 0
-34 1132 0
-36 -1132 1134 0
-38 -1134 1136 0
-40 -1136 1138 0
-42 -1138 0
32 1139 0
-1139 1140 0
34 -1139 1141 0
-1141 1142 0
36 -1141 1143 0
-1143 1144 0
38 -1143 1145 0
-1145 1146 0
40 -1145 0
34 1140 0
36 -1140 1142 0
38 -1142 1144 0
40 -1144 1146 0
42 -1146 0
-1 1147 0
-1147 1148 0
-4 -1147 1149 0
-1149 1150 0
-7 -1149 1151 0
-1151 1152 0
-10 -1151 1153 0
-1153 1154 0
-13 -1153 0
-4 1148 0
-7 -1148 1150 0
-10 -1150 1152 0
-13 -1152 1154 0
-16 -1154 0
1 1155 0
-1155 1156 0
4 -1155 1157 0
-1157 1158 0
7 -1157 1159 0
-1159 1160 0
10 -1159 1161 0
-1161 1162 0
13 -1161 0
4 1156 0
7 -1156 1158 0
10 -1158 1160 0
13 -1160 1162 0
16 -1162 0
-2 1163 0
-1163 1164 0
-5 -1163 1165 0
-1165 1166 0
-8 -1165 1167 0
-1167 1168 0
-11 -1167 1169 0
-1169 1170 0
-14 -1169 0
-5 1164 0
-8 -1164 1166 0
-11 -1166 1168 0
-14 -1168 1170 0
-17 -1170 0
2 1171 0
-1171 1172 0
5 -1171 1173 0
-1173 1174 0
8 -1173 1175 0
-1175 1176 0
11 -1175 1177 0
-1177 1178 0
14 -1177 0
5 1172 0
8 -1172 1174 0
11 -1174 1176 0
14 -1176 1178 0
17 -1178 0
-3 1179 0
-1179 1180 0
-6 -1179 1181 0
-1181 1182 0
-9 -1181 1183 0
-1183 1184 0
-12 -1183 1185 0
-1185 1186 0
-15 -1185 0
-6 1180 0
-9 -1180 1182 0
-12 -1182 1184 0
-15 -1184 1186 0
-18 -1186 0
3 1187 0
-1187 1188 0
6 -1187 1189 0
-1189 1190 0
9 -1189 1191 0
-1191 1192 0
12 -1191 1193 0
-1193 1194 0
15 -1193 0
6 1188 0
9 -1188 1190 0
12 -1190 1192 0
15 -1192 1194 0
18 -1194 0
-4 1195 0
-1195 1196 0
-7 -1195 1197 0
-1197 1198 0
-10 -1197 1199 0
-1199 1200 0
-13 -1199 1201 0
-1201 1202 0
-16 -1201 0
-7 1196 0
-10 -1196 1198 0
-13 -1198 1200 0
-16 -1200 1202 0
-19 -1202 0
4 1203 0
-1203 1204 0
7 -1203 1205 0
-1205 1206 0
10 -1205 1207 0
-1207 1208 0
13 -1207 1209 0
-1209 1210 0
16 -1209 0
7 1204 0
10 -1204 1206 0
13 -1206 1208 0
16 -1208 1210 0
19 -1210 0
-5 1211 0
-1211 1212 0
-8 -1211 1213 0
-1213 1214 0
-11 -1213 1215 0
-1215 1216 0
-14 -1215 1217 0
-1217 1218 0
-17 -1217 0
-8 1212 0
-11 -1212 1214 0
-14 -1214 1216 0
-17 -1216 1218 0
-20 -1218 0
5 1219 0
-1219 1220 0
8 -1219 1221 0
-1221 1222 0
11 -1221 1223 0
-1223 1224 0
14 -1223 1225 0
-1225 1226 0
17 -1225 0
8 1220 0
11 -1220 1222 0
14 -1222 1224 0
17 -1224 1226 0
20 -1226 0
-6 1227 0
-1227 1228 0
-9 -1227 1229 0
-1229 1230 0
-12 -1229 1231 0
-1231 1232 0
-15 -1231 1233 0
-1233 1234 0
-18 -1233 0
-9 1228 0
-12 -1228 1230 0
-15 -1230 1232 0
-18 -1232 1234 0
-21 -1234 0
6 1235 0
-1235 1236 0
9 -1235 1237 0
-1237 1238 0
12 -1237 1239 0
-1239 1240 0
15 -1239 1241 0
-1241 1242 0
18 -1241 0
9 1236 0
12 -1236 1238 0
15 -1238 1240 0
18 -1240 1242 0
21 -1242 0
-7 1243 0
-1243 1244 0
-10 -1243 1245 0
-1245 1246 0
-13 -1245 1247 0
-1247 1248 0
-16 -1247 1249 0
-1249 1250 0
-19 -1249 0
-10 1244 0
-13 -1244 1246 0
-16 -1246 1248 0
-19 -1248 1250 0
-22 -1250 0
7 1251 0
-1251 1252 0
10 -1251 1253 0
-1253 1254 0
13 -1253 1255 0
-1255 1256 0
16 -1255 1257 0
-1257 1258 0
19 -1257 0
10 1252 0
13 -1252 1254 0
16 -1254 1256 0
19 -1256 1258 0
22 -1258 0
-8 1259 0
-1259 1260 0
-11 -1259 1261 0
-1261 1262 0
-14 -1261 1263 0
-1263 1264 0
-17 -1263 1265 0
-1265 1266 0
-20 -1265 0
-11 1260 0
-14 -1260 1262 0
-17 -1262 1264 0
-20 -1264 1266 0
-23 -1266 0
8 1267 0
-1267 1268 0
11 -1267 1269 0
-1269 1270 0
14 -1269 1271 0
-1271 1272 0
17 -1271 1273 0
-1273 1274 0
20 -1273 0
11 1268 0
14 -1268 1270 0
17 -1270 1272 0
20 -1272 1274 0
23 -1274 0
-9 1275 0
-1275 1276 0
-12 -1275 1277 0
-1277 1278 0
-15 -1277 1279 0
-1279 1280 0
-18 -1279 1281 0
-1281 1282 0
-21 -1281 0
-12 1276 0
-15 -1276 1278 0
-18 -1278 1280 0
-21 -1280 1282 0
-24 -1282 0
9 1283 0
-1283 1284 0
12 -1283 1285 0
-1285 1286 0
15 -1285 1287 0
-1287 1288 0
18 -1287 1289 0
-1289 1290 0
21 -1289 0
12 1284 0
15 -1284 1286 0
18 -1286 1288 0
21 -1288 1290 0
24 -1290 0
-10 1291 0
-1291 1292 0
-13 -1291 1293 0
-1293 1294 0
-16 -1293 1295 0
-1295 1296 0
-19 -1295 1297 0
-1297 1298 0
-22 -1297 0
-13 1292 0
-16 -1292 1294 0
-19 -1294 1296 0
-22 -1296 1298 0
-25 -1298 0
10 1299 0
-1299 1300 0
13 -1299 1301 0
-1301 1302 0
16 -1301 1303 0
-1303 1304 0
19 -1303 1305 0
-1305 1306 0
22 -1305 0
13 1300 0
16 -1300 1302 0
19 -1302 1304 0
22 -1304 1306 0
25 -1306 0
-11 1307 0
-1307 1308 0
-14 -1307 1309 0
-1309 1310 0
-17 -1309 1311 0
-1311 1312 0
-20 -1311 1313 0
-1313 1314 0
-23 -1313 0
-14 1308 0
-17 -1308 1310 0
-20 -1310 1312 0
-23 -1312 1314 0
-26 -1314 0
11 1315 0
-1315 1316 0
14 -1315 1317 0
-1317 1318 0
17 -1317 1319 0
-1319 1320 0
20 -1319 1321 0
-1321 1322 0
23 -1321 0
14 1316 0
17 -1316 1318 0
20 -1318 1320 0
23 -1320 1322 0
26 -1322 0
-12 1323 0
-1323 1324 0
-15 -1323 1325 0
-1325 1326 0
-18 -1325 1327 0
-1327 1328 0
-21 -1327 1329 0
-1329 1330 0
-24 -1329 0
-15 1324 0
-18 -1324 1326 0
-21 -1326 1328 0
-24 -1328 1330 0
-27 -1330 0
12 1331 0
-1331 1332 0
15 -1331 1333 0
-1333 1334 0
18 -1333 1335 0
-1335 1336 0
21 -1335 1337 0
-1337 1338 0
24 -1337 0
15 1332 0
18 -1332 1334 0
21 -1334 1336 0
24 -1336 1338 0
27 -1338 0
-13 1339 0
-1339 1340 0
-16 -1339 1341 0
-1341 1342 0
-19 -1341 1343 0
-1343 1344 0
-22 -1343 1345 0
-1345 1346 0
-25 -1345 0
-16 1340 0
-19 -1340 1342 0
-22 -1342 1344 0
-25 -1344 1346 0
-28 -1346 0
13 1347 0
-1347 1348 0
16 -1347 1349 0
-1349 1350 0
19 -1349 1351 0
-1351 1352 0
22 -1351 1353 0
-1353 1354 0
25 -1353 0
16 1348 0
19 -1348 1350 0
22 -1350 1352 0
25 -1352 1354 0
28 -1354 0
-14 1355 0
-1355 1356 0
-17 -1355 1357 0
-1357 1358 0
-20 -1357 1359 0
-1359 1360 0
-23 -1359 1361 0
-1361 1362 0
-26 -1361 0
-17 1356 0
-20 -1356 1358 0
-23 -1358 1360 0
-26 -1360 1362 0
-29 -1362 0
14 1363 0
-1363 1364 0
17 -1363 1365 0
-1365 1366 0
20 -1365 1367 0
-1367 1368 0
23 -1367 1369 0
-1369 1370 0
26 -1369 0
17 1364 0
20 -1364 1366 0
23 -1366 1368 0
26 -1368 1370 0
29 -1370 0
-15 1371 0
-1371 1372 0
-18 -1371 1373 0
-1373 1374 0
-21 -1373 1375 0
-1375 1376 0
-24 -1375 1377 0
-1377 1378 0
-27 -1377 0
-18 1372 0
-21 -1372 1374 0
-24 -1374 1376 0
-27 -1376 1378 0
-30 -1378 0
15 1379 0
-1379 1380 0
18 -1379 1381 0
-1381 1382 0
21 -1381 1383 0
-1383 1384 0
24 -1383 1385 0
-1385 1386 0
27 -1385 0
18 1380 0
21 -1380 1382 0
24 -1382 1384 0
27 -1384 1386 0
30 -1386 0
-16 1387 0
-1387 1388 0
-19 -1387 1389 0
-1389 1390 0
-22 -1389 1391 0
-1391 1392 0
-25 -1391 1393 0
-1393 1394 0
-28 -1393 0
-19 1388 0
-22 -1388 1390 0
-25 -1390 1392 0
-28 -1392 1394 0
-31 -1394 0
16 1395 0
-1395 1396 0
19 -1395 1397 0
-1397 1398 0
22 -1397 1399 0
-1399 1400 0
25 -1399 1401 0
-1401 1402 0
28 -1401 0
19 1396 0
22 -1396 1398 0
25 -1398 1400 0
28 -1400 1402 0
31 -1402 0
-17 1403 0
-1403 1404 0
-20 -1403 1405 0
-1405 1406 0
-23 -1405 1407 0
-1407 1408 0
-26 -1407 1409 0
-1409 1410 0
-29 -1409 0
-20 1404 0
-23 -1404 1406 0
-26 -1406 1408 0
-29 -1408 1410 0
-32 -1410 0
17 1411 0
-1411 1412 0
20 -1411 1413 0
-1413 1414 0
23 -1413 1415 0
-1415 1416 0
26 -1415 1417 0
-1417 1418 0
29 -1417 0
20 1412 0
23 -1412 1414 0
26 -1414 1416 0
29 -1416 1418 0
32 -1418 0
-18 1419 0
-1419 1420 0
-21 -1419 1421 0
-1421 1422 0
-24 -1421 1423 0
-1423 1424 0
-27 -1423 1425 0
-1425 1426 0
-30 -1425 0
-21 1420 0
-24 -1420 1422 0
-27 -1422 1424 0
-30 -1424 1426 0
-33 -1426 0
18 1427 0
-1427 1428 0
21 -1427 1429 0
-1429 1430 0
24 -1429 1431 0
-1431 1432 0
27 -1431 1433 0
-1433 1434 0
30 -1433 0
21 1428 0
24 -1428 1430 0
27 -1430 1432 0
30 -1432 1434 0
33 -1434 0
-19 1435 0
-1435 1436 0
-22 -1435 1437 0
-1437 1438 0
-25 -1437 1439 0
-1439 1440 0
-28 -1439 1441 0
-1441 1442 0
-31 -1441 0
-22 1436 0
-25 -1436 1438 0
-28 -1438 1440 0
-31 -1440 1442 0
-34 -1442 0
19 1443 0
-1443 1444 0
22 -1443 1445 0
-1445 1446 0
25 -1445 1447 0
-1447 1448 0
28 -1447 1449 0
-1449 1450 0
31 -1449 0
22 1444 0
25 -1444 1446 0
28 -1446 1448 0
31 -1448 1450 0
34 -1450 0
-20 1451 0
-1451 1452 0
-23 -1451 1453 0
-1453 1454 0
-26 -1453 1455 0
-1455 1456 0
-29 -1455 1457 0
-1457 1458 0
-32 -1457 0
-23 1452 0
-26 -1452 1454 0
-29 -1454 1456 0
-32 -1456 1458 0
-35 -1458 0
20 1459 0
-1459 1460 0
23 -1459 1461 0
-1461 1462 0
26 -1461 1463 0
-1463 1464 0
29 -1463 1465 0
-1465 1466 0
32 -1465 0
23 1460 0
26 -1460 1462 0
29 -1462 1464 0
32 -1464 1466 0
35 -1466 0
-21 1467 0
-1467 1468 0
-24 -1467 1469 0
-1469 1470 0
-27 -1469 1471 0
-1471 1472 0
-30 -1471 1473 0
-1473 1474 0
-33 -1473 0
-24 1468 0
-27 -1468 1470 0
-30 -1470 1472 0
-33 -1472 1474 0
-36 -1474 0
21 1475 0
-1475 1476 0
24 -1475 1477 0
-1477 1478 0
27 -1477 1479 0
-1479 1480 0
30 -1479 1481 0
-1481 1482 0
33 -1481 0
24 1476 0
27 -1476 1478 0
30 -1478 1480 0
33 -1480 1482 0
36 -1482 0
-22 1483 0
-1483 1484 0
-25 -1483 1485 0
-1485 1486 0
-28 -1485 1487 0
-1487 1488 0
-31 -1487 1489 0
-1489 1490 0
-34 -1489 0
-25 1484 0
-28 -1484 1486 0
-31 -1486 1488 0
-34 -1488 1490 0
-37 -1490 0
22 1491 0
-1491 1492 0
25 -1491 1493 0
-1493 1494 0
28 -1493 1495 0
-1495 1496 0
31 -1495 1497 0
-1497 1498 0
34 -1497 0
25 1492 0
28 -1492 1494 0
31 -1494 1496 0
34 -1496 1498 0
37 -1498 0
-23 1499 0
-1499 1500 0
-26 -1499 1501 0
-1501 1502 0
-29 -1501 1503 0
-1503 1504 0
-32 -1503 1505 0
-1505 1506 0
-35 -1505 0
-26 1500 0
-29 -1500 1502 0
-32 -1502 1504 0
-35 -1504 1506 0
-38 -1506 0
23 1507 0
-1507 1508 0
26 -1507 1509 0
-1509 1510 0
29 -1509 1511 0
-1511 1512 0
32 -1511 1513 0
-1513 1514 0
35 -1513 0
26 1508 0
29 -1508 1510 0
32 -1510 1512 0
35 -1512 1514 0
38 -1514 0
-24 1515 0
-1515 1516 0
-27 -1515 1517 0
-1517 1518 0
-30 -1517 1519 0
-1519 1520 0
-33 -1519 1521 0
-1521 1522 0
-36 -1521 0
-27 1516 0
-30 -1516 1518 0
-33 -1518 1520 0
-36 -1520 1522 0
-39 -1522 0
24 1523 0
-1523 1524 0
27 -1523 1525 0
-1525 1526 0
30 -1525 1527 0
-1527 1528 0
33 -1527 1529 0
-1529 1530 0
36 -1529 0
27 1524 0
30 -1524 1526 0
33 -1526 1528 0
36 -1528 1530 0
39 -1530 0
-25 1531 0
-1531 1532 0
-28 -1531 1533 0
-1533 1534 0
-31 -1533 1535 0
-1535 1536 0
-34 -1535 1537 0
-1537 1538 0
-37 -1537 0
-28 1532 0
-31 -1532 1534 0
-34 -1534 1536 0
-37 -1536 1538 0
-40 -1538 0
25 1539 0
-1539 1540 0
28 -1539 1541 0
-1541 1542 0
31 -1541 1543 0
-1543 1544 0
34 -1543 1545 0
-1545 1546 0
37 -1545 0
28 1540 0
31 -1540 1542 0
34 -1542 1544 0
37 -1544 1546 0
40 -1546 0
-26 1547 0
-1547 1548 0
-29 -1547 1549 0
-1549 1550 0
-32 -1549 1551 0
-1551 1552 0
-35 -1551 1553 0
-1553 1554 0
-38 -1553 0
-29 1548 0
-32 -1548 1550 0
-35 -1550 1552 0
-38 -1552 1554 0
-41 -1554 0
26 1555 0
-1555 1556 0
29 -1555 1557 0
-1557 1558 0
32 -1557 1559 0
-1559 1560 0
35 -1559 1561 0
-1561 1562 0
38 -1561 0
29 1556 0
32 -1556 1558 0
35 -1558 1560 0
38 -1560 1562 0
41 -1562 0
-27 1563 0
-1563 1564 0
-30 -1563 1565 0
-1565 1566 0
-33 -1565 1567 0
-1567 1568 0
-36 -1567 1569 0
-1569 1570 0
-39 -1569 0
-30 1564 0
-33 -1564 1566 0
-36 -1566 1568 0
-39 -1568 1570 0
-42 -1570 0
27 1571 0
-1571 1572 0
30 -1571 1573 0
-1573 1574 0
33 -1573 1575 0
-1575 1576 0
36 -1575 1577 0
-1577 1578 0
39 -1577 0
30 1572 0
33 -1572 1574 0
36 -1574 1576 0
39 -1576 1578 0
42 -1578 0
-1 1579 0
-1579 1580 0
-5 -1579 1581 0
-1581 1582 0
-9 -1581 1583 0
-1583 1584 0
-13 -1583 1585 0
-1585 1586 0
-17 -1585 0
-5 1580 0
-9 -1580 1582 0
-13 -1582 1584 0
-17 -1584 1586 0
-21 -1586 0
1 1587 0
-1587 1588 0
5 -1587 1589 0
-1589 1590 0
9 -1589 1591 0
-1591 1592 0
13 -1591 1593 0
-1593 1594 0
17 -1593 0
5 1588 0
9 -1588 1590 0
13 -1590 1592 0
17 -1592 1594 0
21 -1594 0
-2 1595 0
-1595 1596 0
-6 -1595 1597 0
-1597 1598 0
-10 -1597 1599 0
-1599 1600 0
-14 -1599 1601 0
-1601 1602 0
-18 -1601 0
-6 1596 0
-10 -1596 1598 0
-14 -1598 1600 0
-18 -1600 1602 0
-22 -1602 0
2 1603 0
-1603 1604 0
6 -1603 1605 0
-1605 1606 0
10 -1605 1607 0
-1607 1608 0
14 -1607 1609 0
-1609 1610 0
18 -1609 0
6 1604 0
10 -1604 1606 0
14 -1606 1608 0
18 -1608 1610 0
22 -1610 0
-3 1611 0
-1611 1612 0
-7 -1611 1613 0
-1613 1614 0
-11 -1613 1615 0
-1615 1616 0
-15 -1615 1617 0
-1617 1618 0
-19 -1617 0
-7 1612 0
-11 -1612 1614 0
-15 -1614 1616 0
-19 -1616 1618 0
-23 -1618 0
3 1619 0
-1619 1620 0
7 -1619 1621 0
-1621 1622 0
11 -1621 1623 0
-1623 1624 0
15 -1623 1625 0
-1625 1626 0
19 -1625 0
7 1620 0
11 -1620 1622 0
15 -1622 1624 0
19 -1624 1626 0
23 -1626 0
-4 1627 0
-1627 1628 0
-8 -1627 1629 0
-1629 1630 0
-12 -1629 1631 0
-1631 1632 0
-16 -1631 1633 0
-1633 1634 0
-20 -1633 0
-8 1628 0
-12 -1628 1630 0
-16 -1630 1632 0
-20 -1632 1634 0
-24 -1634 0
4 1635 0
-1635 1636 0
8 -1635 1637 0
-1637 1638 0
12 -1637 1639 0
-1639 1640 0
16 -1639 1641 0
-1641 1642 0
20 -1641 0
8 1636 0
12 -1636 1638 0
16 -1638 1640 0
20 -1640 1642 0
24 -1642 0
-5 1643 0
-1643 1644 0
-9 -1643 1645 0
-1645 1646 0
-13 -1645 1647 0
-1647 1648 0
-17 -1647 1649 0
-1649 1650 0
-21 -1649 0
-9 1644 0
-13 -1644 1646 0
-17 -1646 1648 0
-21 -1648 1650 0
-25 -1650 0
5 1651 0
-1651 1652 0
9 -1651 1653 0
-1653 1654 0
13 -1653 1655 0
-1655 1656 0
17 -1655 1657 0
-1657 1658 0
21 -1657 0
9 1652 0
13 -1652 1654 0
17 -1654 1656 0
21 -1656 1658 0
25 -1658 0
-6 1659 0
-1659 1660 0
-10 -1659 1661 0
-1661 1662 0
-14 -1661 1663 0
-1663 1664 0
-18 -1663 1665 0
-1665 1666 0
-22 -1665 0
-10 1660 0
-14 -1660 1662 0
-18 -1662 1664 0
-22 -1664 1666 0
-26 -1666 0
6 1667 0
-1667 1668 0
10 -1667 1669 0
-1669 1670 0
14 -1669 1671 0
-1671 1672 0
18 -1671 1673 0
-1673 1674 0
22 -1673 0
10 1668 0
14 -1668 1670 0
18 -1670 1672 0
22 -1672 1674 0
26 -1674 0
-7 1675 0
-1675 1676 0
-11 -1675 1677 0
-1677 1678 0
-15 -1677 1679 0
-1679 1680 0
-19 -1679 1681 0
-1681 1682 0
-23 -1681 0
-11 1676 0
-15 -1676 1678 0
-19 -1678 1680 0
-23 -1680 1682 0
-27 -1682 0
7 1683 0
-1683 1684 0
11 -1683 1685 0
-1685 1686 0
15 -1685 1687 0
-1687 1688 0
19 -1687 1689 0
-1689 1690 0
23 -1689 0
11 1684 0
15 -1684 1686 0
19 -1686 1688 0
23 -1688 1690 0
27 -1690 0
-8 1691 0
-1691 1692 0
-12 -1691 1693 0
-1693 1694 0
-16 -1693 1695 0
-1695 1696 0
-20 -1695 1697 0
-1697 1698 0
-24 -1697 0
-12 1692 0
-16 -1692 1694 0
-20 -1694 1696 0
-24 -1696 1698 0
-28 -1698 0
8 1699 0
-1699 1700 0
12 -1699 1701 0
-1701 1702 0
16 -1701 1703 0
-1703 1704 0
20 -1703 1705 0
-1705 1706 0
24 -1705 0
12 1700 0
16 -1700 1702 0
20 -1702 1704 0
24 -1704 1706 0
28 -1706 0
-9 1707 0
-1707 1708 0
-13 -1707 1709 0
-1709 1710 0
-17 -1709 1711 0
-1711 1712 0
-21 -1711 1713 0
-1713 1714 0
-25 -1713 0
-13 1708 0
-17 -1708 1710 0
-21 -1710 1712 0
-25 -1712 1714 0
-29 -1714 0
9 1715 0
-1715 1716 0
13 -1715 1717 0
-1717 1718 0
17 -1717 1719 0
-1719 1720 0
21 -1719 1721 0
-1721 1722 0
25 -1721 0
13 1716 0
17 -1716 1718 0
21 -1718 1720 0
25 -1720 1722 0
29 -1722 0
-10 1723 0
-1723 1724 0
-14 -1723 1725 0
-1725 1726 0
-18 -1725 1727 0
-1727 1728 0
-22 -1727 1729 0
-1729 1730 0
-26 -1729 0
-14 1724 0
-18 -1724 1726 0
-22 -1726 1728 0
-26 -1728 1730 0
-30 -1730 0
10 1731 0
-1731 1732 0
14 -1731 1733 0
-1733 1734 0
18 -1733 1735 0
-1735 1736 0
22 -1735 1737 0
-1737 1738 0
26 -1737 0
14 1732 0
18 -1732 1734 0
22 -1734 1736 0
26 -1736 1738 0
30 -1738 0
-11 1739 0
-1739 1740 0
-15 -1739 1741 0
-1741 1742 0
-19 -1741 1743 0
-1743 1744 0
-23 -1743 1745 0
-1745 1746 0
-27 -1745 0
-15 1740 0
-19 -1740 1742 0
-23 -1742 1744 0
-27 -1744 1746 0
-31 -1746 0
11 1747 0
-1747 1748 0
15 -1747 1749 0
-1749 1750 0
19 -1749 1751 0
-1751 1752 0
23 -1751 1753 0
-1753 1754 0
27 -1753 0
15 1748 0
19 -1748 1750 0
23 -1750 1752 0
27 -1752 1754 0
31 -1754 0
-12 1755 0
-1755 1756 0
-16 -1755 1757 0
-1757 1758 0
-20 -1757 1759 0
-1759 1760 0
-24 -1759 1761 0
-1761 1762 0
-28 -1761 0
-16 1756 0
-20 -1756 1758 0
-24 -1758 1760 0
-28 -1760 1762 0
-32 -1762 0
12 1763 0
-1763 1764 0
16 -1763 1765 0
-1765 1766 0
20 -1765 1767 0
-1767 1768 0
24 -1767 1769 0
-1769 1770 0
28 -1769 0
16 1764 0
20 -1764 1766 0
24 -1766 1768 0
28 -1768 1770 0
32 -1770 0
-13 1771 0
-1771 1772 0
-17 -1771 1773 0
-1773 1774 0
-21 -1773 1775 0
-1775 1776 0
-25 -1775 1777 0
-1777 1778 0
-29 -1777 0
-17 1772 0
-21 -1772 1774 0
-25 -1774 1776 0
-29 -1776 1778 0
-33 -1778 0
13 1779 0
-1779 1780 0
17 -1779 1781 0
-1781 1782 0
21 -1781 1783 0
-1783 1784 0
25 -1783 1785 0
-1785 1786 0
29 -1785 0
17 1780 0
21 -1780 1782 0
25 -1782 1784 0
29 -1784 1786 0
33 -1786 0
-14 1787 0
-1787 1788 0
-18 -1787 1789 0
-1789 1790 0
-22 -1789 1791 0
-1791 1792 0
-26 -1791 1793 0
-1793 1794 0
-30 -1793 0
-18 1788 0
-22 -1788 1790 0
-26 -1790 1792 0
-30 -1792 1794 0
-34 -1794 0
14 1795 0
-1795 1796 0
18 -1795 1797 0
-1797 1798 0
22 -1797 1799 0
-1799 1800 0
26 -1799 1801 0
-1801 1802 0
30 -1801 0
18 1796 0
22 -1796 1798 0
26 -1798 1800 0
30 -1800 1802 0
34 -1802 0
-15 1803 0
-1803 1804 0
-19 -1803 1805 0
-1805 1806 0
-23 -1805 1807 0
-1807 1808 0
-27 -1807 1809 0
-1809 1810 0
-31 -1809 0
-19 1804 0
-23 -1804 1806 0
-27 -1806 1808 0
-31 -1808 1810 0
-35 -1810 0
15 1811 0
-1811 1812 0
19 -1811 1813 0
-1813 1814 0
23 -1813 1815 0
-1815 1816 0
27 -1815 1817 0
-1817 1818 0
31 -1817 0
19 1812 0
23 -1812 1814 0
27 -1814 1816 0
31 -1816 1818 0
35 -1818 0
-16 1819 0
-1819 1820 0
-20 -1819 1821 0
-1821 1822 0
-24 -1821 1823 0
-1823 1824 0
-28 -1823 1825 0
-1825 1826 0
-32 -1825 0
-20 1820 0
-24 -1820 1822 0
-28 -1822 1824 0
-32 -1824 1826 0
-36 -1826 0
16 1827 0
-1827 1828 0
20 -1827 1829 0
-1829 1830 0
24 -1829 1831 0
-1831 1832 0
28 -1831 1833 0
-1833 1834 0
32 -1833 0
20 1828 0
24 -1828 1830 0
28 -1830 1832 0
32 -1832 1834 0
36 -1834 0
-17 1835 0
-1835 1836 0
-21 -1835 1837 0
-1837 1838 0
-25 -1837 1839 0
-1839 1840 0
-29 -1839 1841 0
-1841 1842 0
-33 -1841 0
-21 1836 0
-25 -1836 1838 0
-29 -1838 1840 0
-33 -1840 1842 0
-37 -1842 0
17 1843 0
-1843 1844 0
21 -1843 1845 0
-1845 1846 0
25 -1845 1847 0
-1847 1848 0
29 -1847 1849 0
-1849 1850 0
33 -1849 0
21 1844 0
25 -1844 1846 0
29 -1846 1848 0
33 -1848 1850 0
37 -1850 0
-18 1851 0
-1851 1852 0
-22 -1851 1853 0
-1853 1854 0
-26 -1853 1855 0
-1855 1856 0
-30 -1855 1857 0
-1857 1858 0
-34 -1857 0
-22 1852 0
-26 -1852 1854 0
-30 -1854 1856 0
-34 -1856 1858 0
-38 -1858 0
18 1859 0
-1859 1860 0
22 -1859 1861 0
-1861 1862 0
26 -1861 1863 0
-1863 1864 0
30 -1863 1865 0
-1865 1866 0
34 -1865 0
22 1860 0
26 -1860 1862 0
30 -1862 1864 0
34 -1864 1866 0
38 -1866 0
-19 1867 0
-1867 1868 0
-23 -1867 1869 0
-1869 1870 0
-27 -1869 1871 0
-1871 1872 0
-31 -1871 1873 0
-1873 1874 0
-35 -1873 0
-23 1868 0
-27 -1868 1870 0
-31 -1870 1872 0
-35 -1872 1874 0
-39 -1874 0
19 1875 0
-1875 1876 0
23 -1875 1877 0
-1877 1878 0
27 -1877 1879 0
-1879 1880 0
31 -1879 1881 0
-1881 1882 0
35 -1881 0
23 1876 0
27 -1876 1878 0
31 -1878 1880 0
35 -1880 1882 0
39 -1882 0
-20 1883 0
-1883 1884 0
-24 -1883 1885 0
-1885 1886 0
-28 -1885 1887 0
-1887 1888 0
-32 -1887 1889 0
-1889 1890 0
-36 -1889 0
-24 1884 0
-28 -1884 1886 0
-32 -1886 1888 0
-36 -1888 1890 0
-40 -1890 0
20 1891 0
-1891 1892 0
24 -1891 1893 0
-1893 1894 0
28 -1893 1895 0
-1895 1896 0
32 -1895 1897 0
-1897 1898 0
36 -1897 0
24 1892 0
28 -1892 1894 0
32 -1894 1896 0
36 -1896 1898 0
40 -1898 0
-21 1899 0
-1899 1900 0
-25 -1899 1901 0
-1901 1902 0
-29 -1901 1903 0
-1903 1904 0
-33 -1903 1905 0
-1905 1906 0
-37 -1905 0
-25 1900 0
-29 -1900 1902 0
-33 -1902 1904 0
-37 -1904 1906 0
-41 -1906 0
21 1907 0
-1907 1908 0
25 -1907 1909 0
-1909 1910 0
29 -1909 1911 0
-1911 1912 0
33 -1911 1913 0
-1913 1914 0
37 -1913 0
25 1908 0
29 -1908 1910 0
33 -1910 1912 0
37 -1912 1914 0
41 -1914 0
-22 1915 0
-1915 1916 0
-26 -1915 1917 0
-1917 1918 0
-30 -1917 1919 0
-1919 1920 0
-34 -1919 1921 0
-1921 1922 0
-38 -1921 0
-26 1916 0
-30 -1916 1918 0
-34 -1918 1920 0
-38 -1920 1922 0
-42 -1922 0
22 1923 0
-1923 1924 0
26 -1923 1925 0
-1925 1926 0
30 -1925 1927 0
-1927 1928 0
34 -1927 1929 0
-1929 1930 0
38 -1929 0
26 1924 0
30 -1924 1926 0
34 -1926 1928 0
38 -1928 1930 0
42 -1930 0
-1 1931 0
-1931 1932 0
-6 -1931 1933 0
-1933 1934 0
-11 -1933 1935 0
-1935 1936 0
-16 -1935 1937 0
-1937 1938 0
-21 -1937 0
-6 1932 0
-11 -1932 1934 0
-16 -1934 1936 0
-21 -1936 1938 0
-26 -1938 0
1 1939 0
-1939 1940 0
6 -1939 1941 0
-1941 1942 0
11 -1941 1943 0
-1943 1944 0
16 -1943 1945 0
-1945 1946 0
21 -1945 0
6 1940 0
11 -1940 1942 0
16 -1942 1944 0
21 -1944 1946 0
26 -1946 0
-2 1947 0
-1947 1948 0
-7 -1947 1949 0
-1949 1950 0
-12 -1949 1951 0
-1951 1952 0
-17 -1951 1953 0
-1953 1954 0
-22 -1953 0
-7 1948 0
-12 -1948 1950 0
-17 -1950 1952 0
-22 -1952 1954 0
-27 -1954 0
2 1955 0
-1955 1956 0
7 -1955 1957 0
-1957 1958 0
12 -1957 1959 0
-1959 1960 0
17 -1959 1961 0
-1961 1962 0
22 -1961 0
7 1956 0
12 -1956 1958 0
17 -1958 1960 0
22 -1960 1962 0
27 -1962 0
-3 1963 0
-1963 1964 0
-8 -1963 1965 0
-1965 1966 0
-13 -1965 1967 0
-1967 1968 0
-18 -1967 1969 0
-1969 1970 0
-23 -1969 0
-8 1964 0
-13 -1964 1966 0
-18 -1966 1968 0
-23 -1968 1970 0
-28 -1970 0
3 1971 0
-1971 1972 0
8 -1971 1973 0
-1973 1974 0
13 -1973 1975 0
-1975 1976 0
18 -1975 1977 0
-1977 1978 0
23 -1977 0
8 1972 0
13 -1972 1974 0
18 -1974 1976 0
23 -1976 1978 0
28 -1978 0
-4 1979 0
-1979 1980 0
-9 -1979 1981 0
-1981 1982 0
-14 -1981 1983 0
-1983 1984 0
-19 -1983 1985 0
-1985 1986 0
-24 -1985 0
-9 1980 0
-14 -1980 1982 0
-19 -1982 1984 0
-24 -1984 1986 0
-29 -1986 0
4 1987 0
-1987 1988 0
9 -1987 1989 0
-1989 1990 0
14 -1989 1991 0
-1991 1992 0
19 -1991 1993 0
-1993 1994 0
24 -1993 0
9 1988 0
14 -1988 1990 0
19 -1990 1992 0
24 -1992 1994 0
29 -1994 0
-5 1995 0
-1995 1996 0
-10 -1995 1997 0
-1997 1998 0
-15 -1997 1999 0
-1999 2000 0
-20 -1999 2001 0
-2001 2002 0
-25 -2001 0
-10 1996 0
-15 -1996 1998 0
-20 -1998 2000 0
-25 -2000 2002 0
-30 -2002 0
5 2003 0
-2003 2004 0
10 -2003 2005 0
-2005 2006 0
15 -2005 2007 0
-2007 2008 0
20 -2007 2009 0
-2009 2010 0
25 -2009 0
10 2004 0
15 -2004 2006 0
20 -2006 2008 0
25 -2008 2010 0
30 -2010 0
-6 2011 0
-2011 2012 0
-11 -2011 2013 0
-2013 2014 0
-16 -2013 2015 0
-2015 2016 0
-21 -2015 2017 0
-2017 2018 0
-26 -2017 0
-11 2012 0
-16 -2012 2014 0
-21 -2014 2016 0
-26 -2016 2018 0
-31 -2018 0
6 2019 0
-2019 2020 0
11 -2019 2021 0
-2021 2022 0
16 -2021 2023 0
-2023 2024 0
21 -2023 2025 0
-2025 2026 0
26 -2025 0
11 2020 0
16 -2020 2022 0
21 -2022 2024 0
26 -2024 2026 0
31 -2026 0
-7 2027 0
-2027 2028 0
-12 -2027 2029 0
-2029 2030 0
-17 -2029 2031 0
-2031 2032 0
-22 -2031 2033 0
-2033 2034 0
-27 -2033 0
-12 2028 0
-17 -2028 2030 0
-22 -2030 2032 0
-27 -2032 2034 0
-32 -2034 0
7 2035 0
-2035 2036 0
12 -2035 2037 0
-2037 2038 0
17 -2037 2039 0
-2039 2040 0
22 -2039 2041 0
-2041 2042 0
27 -2041 0
12 2036 0
17 -2036 2038 0
22 -2038 2040 0
27 -2040 2042 0
32 -2042 0
-8 2043 0
-2043 2044 0
-13 -2043 2045 0
-2045 2046 0
-18 -2045 2047 0
-2047 2048 0
-23 -2047 2049 0
-2049 2050 0
-28 -2049 0
-13 2044 0
-18 -2044 2046 0
-23 -2046 2048 0
-28 -2048 2050 0
-33 -2050 0
8 2051 0
-2051 2052 0
13 -2051 2053 0
-2053 2054 0
18 -2053 2055 0
-2055 2056 0
23 -2055 2057 0
-2057 2058 0
28 -2057 0
13 2052 0
18 -2052 2054 0
23 -2054 2056 0
28 -2056 2058 0
33 -2058 0
-9 2059 0
-2059 2060 0
-14 -2059 2061 0
-2061 2062 0
-19 -2061 2063 0
-2063 2064 0
-24 -2063 2065 0
-2065 2066 0
-29 -2065 0
-14 2060 0
-19 -2060 2062 0
-24 -2062 2064 0
-29 -2064 2066 0
-34 -2066 0
9 2067 0
-2067 2068 0
14 -2067 2069 0
-2069 2070 0
19 -2069 2071 0
-2071 2072 0
24 -2071 2073 0
-2073 2074 0
29 -2073 0
14 2068 0
19 -2068 2070 0
24 -2070 2072 0
29 -2072 2074 0
34 -2074 0
-10 2075 0
-2075 2076 0
-15 -2075 2077 0
-2077 2078 0
-20 -2077 2079 0
-2079 2080 0
-25 -2079 2081 0
-2081 2082 0
-30 -2081 0
-15 2076 0
-20 -2076 2078 0
-25 -2078 2080 0
-30 -2080 2082 0
-35 -2082 0
10 2083 0
-2083 2084 0
15 -2083 2085 0
-2085 2086 0
20 -2085 2087 0
-2087 2088 0
25 -2087 2089 0
-2089 2090 0
30 -2089 0
15 2084 0
20 -2084 2086 0
25 -2086 2088 0
30 -2088 2090 0
35 -2090 0
-11 2091 0
-2091 2092 0
-16 -2091 2093 0
-2093 2094 0
-21 -2093 2095 0
-2095 2096 0
-26 -2095 2097 0
-2097 2098 0
-31 -2097 0
-16 2092 0
-21 -2092 2094 0
-26 -2094 2096 0
-31 -2096 2098 0
-36 -2098 0
11 2099 0
-2099 2100 0
16 -2099 2101 0
-2101 2102 0
21 -2101 2103 0
-2103 2104 0
26 -2103 2105 0
-2105 2106 0
31 -2105 0
16 2100 0
21 -2100 2102 0
26 -2102 2104 0
31 -2104 2106 0
36 -2106 0
-12 2107 0
-2107 2108 0
-17 -2107 2109 0
-2109 2110 0
-22 -2109 2111 0
-2111 2112 0
-27 -2111 2113 0
-2113 2114 0
-32 -2113 0
-17 2108 0
-22 -2108 2110 0
-27 -2110 2112 0
-32 -2112 2114 0
-37 -2114 0
12 2115 0
-2115 2116 0
17 -2115 2117 0
-2117 2118 0
22 -2117 2119 0
-2119 2120 0
27 -2119 2121 0
-2121 2122 0
32 -2121 0
17 2116 0
22 -2116 2118 0
27 -2118 2120 0
32 -2120 2122 0
37 -2122 0
-13 2123 0
-2123 2124 0
-18 -2123 2125 0
-2125 2126 0
-23 -2125 2127 0
-2127 2128 0
-28 -2127 2129 0
-2129 2130 0
-33 -2129 0
-18 2124 0
-23 -2124 2126 0
-28 -2126 2128 0
-33 -2128 2130 0
-38 -2130 0
13 2131 0
-2131 2132 0
18 -2131 2133 0
-2133 2134 0
23 -2133 2135 0
-2135 2136 0
28 -2135 2137 0
-2137 2138 0
33 -2137 0
18 2132 0
23 -2132 2134 0
28 -2134 2136 0
33 -2136 2138 0
38 -2138 0
-14 2139 0
-2139 2140 0
-19 -2139 2141 0
-2141 2142 0
-24 -2141 2143 0
-2143 2144 0
-29 -2143 2145 0
-2145 2146 0
-34 -2145 0
-19 2140 0
-24 -2140 2142 0
-29 -2142 2144 0
-34 -2144 2146 0
-39 -2146 0
14 2147 0
-2147 2148 0
19 -2147 2149 0
-2149 2150 0
24 -2149 2151 0
-2151 2152 0
29 -2151 2153 0
-2153 2154 0
34 -2153 0
19 2148 0
24 -2148 2150 0
29 -2150 2152 0
34 -2152 2154 0
39 -2154 0
-15 2155 0
-2155 2156 0
-20 -2155 2157 0
-2157 2158 0
-25 -2157 2159 0
-2159 2160 0
-30 -2159 2161 0
-2161 2162 0
-35 -2161 0
-20 2156 0
-25 -2156 2158 0
-30 -2158 2160 0
-35 -2160 2162 0
-40 -2162 0
15 2163 0
-2163 2164 0
20 -2163 2165 0
-2165 2166 0
25 -2165 2167 0
-2167 2168 0
30 -2167 2169 0
-2169 2170 0
35 -2169 0
20 2164 0
25 -2164 2166 0
30 -2166 2168 0
35 -2168 2170 0
40 -2170 0
-16 2171 0
-2171 2172 0
-21 -2171 2173 0
-2173 2174 0
-26 -2173 2175 0
-2175 2176 0
-31 -2175 2177 0
-2177 2178 0
-36 -2177 0
-21 2172 0
-26 -2172 2174 0
-31 -2174 2176 0
-36 -2176 2178 0
-41 -2178 0
16 2179 0
-2179 2180 0
21 -2179 2181 0
-2181 2182 0
26 -2181 2183 0
-2183 2184 0
31 -2183 2185 0
-2185 2186 0
36 -2185 0
21 2180 0
26 -2180 2182 0
31 -2182 2184 0
36 -2184 2186 0
41 -2186 0
-17 2187 0
-2187 2188 0
-22 -2187 2189 0
-2189 2190 0
-27 -2189 2191 0
-2191 2192 0
-32 -2191 2193 0
-2193 2194 0
-37 -2193 0
-22 2188 0
-27 -2188 2190 0
-32 -2190 2192 0
-37 -2192 2194 0
-42 -2194 0
17 2195 0
-2195 2196 0
22 -2195 2197 0
-2197 2198 0
27 -2197 2199 0
-2199 2200 0
32 -2199 2201 0
-2201 2202 0
37 -2201 0
22 2196 0
27 -2196 2198 0
32 -2198 2200 0
37 -2200 2202 0
42 -2202 0
-1 2203 0
-2203 2204 0
-7 -2203 2205 0
-2205 2206 0
-13 -2205 2207 0
-2207 2208 0
-19 -2207 2209 0
-2209 2210 0
-25 -2209 0
-7 2204 0
-13 -2204 2206 0
-19 -2206 2208 0
-25 -2208 2210 0
-31 -2210 0
1 2211 0
-2211 2212 0
7 -2211 2213 0
-2213 2214 0
13 -2213 2215 0
-2215 2216 0
19 -2215 2217 0
-2217 2218 0
25 -2217 0
7 2212 0
13 -2212 2214 0
19 -2214 2216 0
25 -2216 2218 0
31 -2218 0
-2 2219 0
-2219 2220 0
-8 -2219 2221 0
-2221 2222 0
-14 -2221 2223 0
-2223 2224 0
-20 -2223 2225 0
-2225 2226 0
-26 -2225 0
-8 2220 0
-14 -2220 2222 0
-20 -2222 2224 0
-26 -2224 2226 0
-32 -2226 0
2 2227 0
-2227 2228 0
8 -2227 2229 0
-2229 2230 0
14 -2229 2231 0
-2231 2232 0
20 -2231 2233 0
-2233 2234 0
26 -2233 0
8 2228 0
14 -2228 2230 0
20 -2230 2232 0
26 -2232 2234 0
32 -2234 0
-3 2235 0
-2235 2236 0
-9 -2235 2237 0
-2237 2238 0
-15 -2237 2239 0
-2239 2240 0
-21 -2239 2241 0
-2241 2242 0
-27 -2241 0
-9 2236 0
-15 -2236 2238 0
-21 -2238 2240 0
-27 -2240 2242 0
-33 -2242 0
3 2243 0
-2243 2244 0
9 -2243 2245 0
-2245 2246 0
15 -2245 2247 0
-2247 2248 0
21 -2247 2249 0
-2249 2250 0
27 -2249 0
9 2244 0
15 -2244 2246 0
21 -2246 2248 0
27 -2248 2250 0
33 -2250 0
-4 2251 0
-2251 2252 0
-10 -2251 2253 0
-2253 2254 0
-16 -2253 2255 0
-2255 2256 0
-22 -2255 2257 0
-2257 2258 0
-28 -2257 0
-10 2252 0
-16 -2252 2254 0
-22 -2254 2256 0
-28 -2256 2258 0
-34 -2258 0
4 2259 0
-2259 2260 0
10 -2259 2261 0
-2261 2262 0
16 -2261 2263 0
-2263 2264 0
22 -2263 2265 0
-2265 2266 0
28 -2265 0
10 2260 0
16 -2260 2262 0
22 -2262 2264 0
28 -2264 2266 0
34 -2266 0
-5 2267 0
-2267 2268 0
-11 -2267 2269 0
-2269 2270 0
-17 -2269 2271 0
-2271 2272 0
-23 -2271 2273 0
-2273 2274 0
-29 -2273 0
-11 2268 0
-17 -2268 2270 0
-23 -2270 2272 0
-29 -2272 2274 0
-35 -2274 0
5 2275 0
-2275 2276 0
11 -2275 2277 0
-2277 2278 0
17 -2277 2279 0
-2279 2280 0
23 -2279 2281 0
-2281 2282 0
29 -2281 0
11 2276 0
17 -2276 2278 0
23 -2278 2280 0
29 -2280 2282 0
35 -2282 0
-6 2283 0
-2283 2284 0
-12 -2283 2285 0
-2285 2286 0
-18 -2285 2287 0
-2287 2288 0
-24 -2287 2289 0
-2289 2290 0
-30 -2289 0
-12 2284 0
-18 -2284 2286 0
-24 -2286 2288 0
-30 -2288 2290 0
-36 -2290 0
6 2291 0
-2291 2292 0
12 -2291 2293 0
-2293 2294 0
18 -2293 2295 0
-2295 2296 0
24 -2295 2297 0
-2297 2298 0
30 -2297 0
12 2292 0
18 -2292 2294 0
24 -2294 2296 0
30 -2296 2298 0
36 -2298 0
-7 2299 0
-2299 2300 0
-13 -2299 2301 0
-2301 2302 0
-19 -2301 2303 0
-2303 2304 0
-25 -2303 2305 0
-2305 2306 0
-31 -2305 0
-13 2300 0
-19 -2300 2302 0
-25 -2302 2304 0
-31 -2304 2306 0
-37 -2306 0
7 2307 0
-2307 2308 0
13 -2307 2309 0
-2309 2310 0
19 -2309 2311 0
-2311 2312 0
25 -2311 2313 0
-2313 2314 0
31 -2313 0
13 2308 0
19 -2308 2310 0
25 -2310 2312 0
31 -2312 2314 0
37 -2314 0
-8 2315 0
-2315 2316 0
-14 -2315 2317 0
-2317 2318 0
-20 -2317 2319 0
-2319 2320 0
-26 -2319 2321 0
-2321 2322 0
-32 -2321 0
-14 2316 0
-20 -2316 2318 0
-26 -2318 2320 0
-32 -2320 2322 0
-38 -2322 0
8 2323 0
-2323 2324 0
14 -2323 2325 0
-2325 2326 0
20 -2325 2327 0
-2327 2328 0
26 -2327 2329 0
-2329 2330 0
32 -2329 0
14 2324 0
20 -2324 2326 0
26 -2326 2328 0
32 -2328 2330 0
38 -2330 0
-9 2331 0
-2331 2332 0
-15 -2331 2333 0
-2333 2334 0
-21 -2333 2335 0
-2335 2336 0
-27 -2335 2337 0
-2337 2338 0
-33 -2337 0
-15 2332 0
-21 -2332 2334 0
-27 -2334 2336 0
-33 -2336 2338 0
-39 -2338 0
9 2339 0
-2339 2340 0
15 -2339 2341 0
-2341 2342 0
21 -2341 2343 0
-2343 2344 0
27 -2343 2345 0
-2345 2346 0
33 -2345 0
15 2340 0
21 -2340 2342 0
27 -2342 2344 0
33 -2344 2346 0
39 -2346 0
-10 2347 0
-2347 2348 0
-16 -2347 2349 0
-2349 2350 0
-22 -2349 2351 0
-2351 2352 0
-28 -2351 2353 0
-2353 2354 0
-34 -2353 0
-16 2348 0
-22 -2348 2350 0
-28 -2350 2352 0
-34 -2352 2354 0
-40 -2354 0
10 2355 0
-2355 2356 0
16 -2355 2357 0
-2357 2358 0
22 -2357 2359 0
-2359 2360 0
28 -2359 2361 0
-2361 2362 0
34 -2361 0
16 2356 0
22 -2356 2358 0
28 -2358 2360 0
34 -2360 2362 0
40 -2362 0
-11 2363 0
-2363 2364 0
-17 -2363 2365 0
-2365 2366 0
-23 -2365 2367 0
-2367 2368 0
-29 -2367 2369 0
-2369 2370 0
-35 -2369 0
-17 2364 0
-23 -2364 2366 0
-29 -2366 2368 0
-35 -2368 2370 0
-41 -2370 0
11 2371 0
-2371 2372 0
17 -2371 2373 0
-2373 2374 0
23 -2373 2375 0
-2375 2376 0
29 -2375 2377 0
-2377 2378 0
35 -2377 0
17 2372 0
23 -2372 2374 0
29 -2374 2376 0
35 -2376 2378 0
41 -2378 0
-12 2379 0
-2379 2380 0
-18 -2379 2381 0
-2381 2382 0
-24 -2381 2383 0
-2383 2384 0
-30 -2383 2385 0
-2385 2386 0
-36 -2385 0
-18 2380 0
-24 -2380 2382 0
-30 -2382 2384 0
-36 -2384 2386 0
-42 -2386 0
12 2387 0
-2387 2388 0
18 -2387 2389 0
-2389 2390 0
24 -2389 2391 0
-2391 2392 0
30 -2391 2393 0
-2393 2394 0
36 -2393 0
18 2388 0
24 -2388 2390 0
30 -2390 2392 0
36 -2392 2394 0
42 -2394 0
-1 2395 0
-2395 2396 0
-8 -2395 2397 0
-2397 2398 0
-15 -2397 2399 0
-2399 2400 0
-22 -2399 2401 0
-2401 2402 0
-29 -2401 0
-8 2396 0
-15 -2396 2398 0
-22 -2398 2400 0
-29 -2400 2402 0
-36 -2402 0
1 2403 0
-2403 2404 0
8 -2403 2405 0
-2405 2406 0
15 -2405 2407 0
-2407 2408 0
22 -2407 2409 0
-2409 2410 0
29 -2409 0
8 2404 0
15 -2404 2406 0
22 -2406 2408 0
29 -2408 2410 0
36 -2410 0
-2 2411 0
-2411 2412 0
-9 -2411 2413 0
-2413 2414 0
-16 -2413 2415 0
-2415 2416 0
-23 -2415 2417 0
-2417 2418 0
-30 -2417 0
-9 2412 0
-16 -2412 2414 0
-23 -2414 2416 0
-30 -2416 2418 0
-37 -2418 0
2 2419 0
-2419 2420 0
9 -2419 2421 0
-2421 2422 0
16 -2421 2423 0
-2423 2424 0
23 -2423 2425 0
-2425 2426 0
30 -2425 0
9 2420 0
16 -2420 2422 0
23 -2422 2424 0
30 -2424 2426 0
37 -2426 0
-3 2427 0
-2427 2428 0
-10 -2427 2429 0
-2429 2430 0
-17 -2429 2431 0
-2431 2432 0
-24 -2431 2433 0
-2433 2434 0
-31 -2433 0
-10 2428 0
-17 -2428 2430 0
-24 -2430 2432 0
-31 -2432 2434 0
-38 -2434 0
3 2435 0
-2435 2436 0
10 -2435 2437 0
-2437 2438 0
17 -2437 2439 0
-2439 2440 0
24 -2439 2441 0
-2441 2442 0
31 -2441 0
10 2436 0
17 -2436 2438 0
24 -2438 2440 0
31 -2440 2442 0
38 -2442 0
-4 2443 0
-2443 2444 0
-11 -2443 2445 0
-2445 2446 0
-18 -2445 2447 0
-2447 2448 0
-25 -2447 2449 0
-2449 2450 0
-32 -2449 0
-11 2444 0
-18 -2444 2446 0
-25 -2446 2448 0
-32 -2448 2450 0
-39 -2450 0
4 2451 0
-2451 2452 0
11 -2451 2453 0
-2453 2454 0
18 -2453 2455 0
-2455 2456 0
25 -2455 2457 0
-2457 2458 0
32 -2457 0
11 2452 0
18 -2452 2454 0
25 -2454 2456 0
32 -2456 2458 0
39 -2458 0
-5 2459 0
-2459 2460 0
-12 -2459 2461 0
-2461 2462 0
-19 -2461 2463 0
-2463 2464 0
-26 -2463 2465 0
-2465 2466 0
-33 -2465 0
-12 2460 0
-19 -2460 2462 0
-26 -2462 2464 0
-33 -2464 2466 0
-40 -2466 0
5 2467 0
-2467 2468 0
12 -2467 2469 0
-2469 2470 0
19 -2469 2471 0
-2471 2472 0
26 -2471 2473 0
-2473 2474 0
33 -2473 0
12 2468 0
19 -2468 2470 0
26 -2470 2472 0
33 -2472 2474 0
40 -2474 0
-6 2475 0
-2475 2476 0
-13 -2475 2477 0
-2477 2478 0
-20 -2477 2479 0
-2479 2480 0
-27 -2479 2481 0
-2481 2482 0
-34 -2481 0
-13 2476 0
-20 -2476 2478 0
-27 -2478 2480 0
-34 -2480 2482 0
-41 -2482 0
6 2483 0
-2483 2484 0
13 -2483 2485 0
-2485 2486 0
20 -2485 2487 0
-2487 2488 0
27 -2487 2489 0
-2489 2490 0
34 -2489 0
13 2484 0
20 -2484 2486 0
27 -2486 2488 0
34 -2488 2490 0
41 -2490 0
-7 2491 0
-2491 2492 0
-14 -2491 2493 0
-2493 2494 0
-21 -2493 2495 0
-2495 2496 0
-28 -2495 2497 0
-2497 2498 0
-35 -2497 0
-14 2492 0
-21 -2492 2494 0
-28 -2494 2496 0
-35 -2496 2498 0
-42 -2498 0
7 2499 0
-2499 2500 0
14 -2499 2501 0
-2501 2502 0
21 -2501 2503 0
-2503 2504 0
28 -2503 2505 0
-2505 2506 0
35 -2505 0
14 2500 0
21 -2500 2502 0
28 -2502 2504 0
35 -2504 2506 0
42 -2506 0
-1 2507 0
-2507 2508 0
-9 -2507 2509 0
-2509 2510 0
-17 -2509 2511 0
-2511 2512 0
-25 -2511 2513 0
-2513 2514 0
-33 -2513 0
-9 2508 0
-17 -2508 2510 0
-25 -2510 2512 0
-33 -2512 2514 0
-41 -2514 0
1 2515 0
-2515 2516 0
9 -2515 2517 0
-2517 2518 0
17 -2517 2519 0
-2519 2520 0
25 -2519 2521 0
-2521 2522 0
33 -2521 0
9 2516 0
17 -2516 2518 0
25 -2518 2520 0
33 -2520 2522 0
41 -2522 0
-2 2523 0
-2523 2524 0
-10 -2523 2525 0
-2525 2526 0
-18 -2525 2527 0
-2527 2528 0
-26 -2527 2529 0
-2529 2530 0
-34 -2529 0
-10 2524 0
-18 -2524 2526 0
-26 -2526 2528 0
-34 -2528 2530 0
-42 -2530 0
2 2531 0
-2531 2532 0
10 -2531 2533 0
-2533 2534 0
18 -2533 2535 0
-2535 2536 0
26 -2535 2537 0
-2537 2538 0
34 -2537 0
10 2532 0
18 -2532 2534 0
26 -2534 2536 0
34 -2536 2538 0
42 -2538 0
