p cnf 8436 15624
-1 67 0
-67 68 0
-2 -67 69 0
-69 70 0
-3 -69 71 0
-71 72 0
-4 -71 73 0
-73 74 0
-5 -73 75 0
-75 76 0
-6 -75 0
-2 68 0
-68 77 0
-3 -68 70 0
-70 78 0
-4 -70 72 0
-72 79 0
-5 -72 74 0
-74 80 0
-6 -74 76 0
-76 81 0
-7 -76 0
-3 77 0
-4 -77 78 0
-5 -78 79 0
-6 -79 80 0
-7 -80 81 0
-8 -81 0
1 82 0
-82 83 0
2 -82 84 0
-84 85 0
3 -84 86 0
-86 87 0
4 -86 88 0
-88 89 0
5 -88 90 0
-90 91 0
6 -90 0
2 83 0
-83 92 0
3 -83 85 0
-85 93 0
4 -85 87 0
-87 94 0
5 -87 89 0
-89 95 0
6 -89 91 0
-91 96 0
7 -91 0
3 92 0
4 -92 93 0
5 -93 94 0
6 -94 95 0
7 -95 96 0
8 -96 0
-2 97 0
-97 98 0
-3 -97 99 0
-99 100 0
-4 -99 101 0
-101 102 0
-5 -101 103 0
-103 104 0
-6 -103 105 0
-105 106 0
-7 -105 0
-3 98 0
-98 107 0
-4 -98 100 0
-100 108 0
-5 -100 102 0
-102 109 0
-6 -102 104 0
-104 110 0
-7 -104 106 0
-106 111 0
-8 -106 0
-4 107 0
-5 -107 108 0
-6 -108 109 0
-7 -109 110 0
-8 -110 111 0
-9 -111 0
2 112 0
-112 113 0
3 -112 114 0
-114 115 0
4 -114 116 0
-116 117 0
5 -116 118 0
-118 119 0
6 -118 120 0
-120 121 0
7 -120 0
3 113 0
-113 122 0
4 -113 115 0
-115 123 0
5 -115 117 0
-117 124 0
6 -117 119 0
-119 125 0
7 -119 121 0
-121 126 0
8 -121 0
4 122 0
5 -122 123 0
6 -123 124 0
7 -124 125 0
8 -125 126 0
9 -126 0
-3 127 0
-127 128 0
-4 -127 129 0
-129 130 0
-5 -129 131 0
-131 132 0
-6 -131 133 0
-133 134 0
-7 -133 135 0
-135 136 0
-8 -135 0
-4 128 0
-128 137 0
-5 -128 130 0
-130 138 0
-6 -130 132 0
-132 139 0
-7 -132 134 0
-134 140 0
-8 -134 136 0
-136 141 0
-9 -136 0
-5 137 0
-6 -137 138 0
-7 -138 139 0
-8 -139 140 0
-9 -140 141 0
-10 -141 0
3 142 0
-142 143 0
4 -142 144 0
-144 145 0
5 -144 146 0
-146 147 0
6 -146 148 0
-148 149 0
7 -148 150 0
-150 151 0
8 -150 0
4 143 0
-143 152 0
5 -143 145 0
-145 153 0
6 -145 147 0
-147 154 0
7 -147 149 0
-149 155 0
8 -149 151 0
-151 156 0
9 -151 0
5 152 0
6 -152 153 0
7 -153 154 0
8 -154 155 0
9 -155 156 0
10 -156 0
-4 157 0
-157 158 0
-5 -157 159 0
-159 160 0
-6 -159 161 0
-161 162 0
-7 -161 163 0
-163 164 0
-8 -163 165 0
-165 166 0
-9 -165 0
-5 158 0
-158 167 0
-6 -158 160 0
-160 168 0
-7 -160 162 0
-162 169 0
-8 -162 164 0
-164 170 0
-9 -164 166 0
-166 171 0
-10 -166 0
-6 167 0
-7 -167 168 0
-8 -168 169 0
-9 -169 170 0
-10 -170 171 0
-11 -171 0
4 172 0
-172 173 0
5 -172 174 0
-174 175 0
6 -174 176 0
-176 177 0
7 -176 178 0
-178 179 0
8 -178 180 0
-180 181 0
9 -180 0
5 173 0
-173 182 0
6 -173 175 0
-175 183 0
7 -175 177 0
-177 184 0
8 -177 179 0
-179 185 0
9 -179 181 0
-181 186 0
10 -181 0
6 182 0
7 -182 183 0
8 -183 184 0
9 -184 185 0
10 -185 186 0
11 -186 0
-5 187 0
-187 188 0
-6 -187 189 0
-189 190 0
-7 -189 191 0
-191 192 0
-8 -191 193 0
-193 194 0
-9 -193 195 0
-195 196 0
-10 -195 0
-6 188 0
-188 197 0
-7 -188 190 0
-190 198 0
-8 -190 192 0
-192 199 0
-9 -192 194 0
-194 200 0
-10 -194 196 0
-196 201 0
-11 -196 0
-7 197 0
-8 -197 198 0
-9 -198 199 0
-10 -199 200 0
-11 -200 201 0
-12 -201 0
5 202 0
-202 203 0
6 -202 204 0
-204 205 0
7 -204 206 0
-206 207 0
8 -206 208 0
-208 209 0
9 -208 210 0
-210 211 0
10 -210 0
6 203 0
-203 212 0
7 -203 205 0
-205 213 0
8 -205 207 0
-207 214 0
9 -207 209 0
-209 215 0
10 -209 211 0
-211 216 0
11 -211 0
7 212 0
8 -212 213 0
9 -213 214 0
10 -214 215 0
11 -215 216 0
12 -216 0
-6 217 0
-217 218 0
-7 -217 219 0
-219 220 0
-8 -219 221 0
-221 222 0
-9 -221 223 0
-223 224 0
-10 -223 225 0
-225 226 0
-11 -225 0
-7 218 0
-218 227 0
-8 -218 220 0
-220 228 0
-9 -220 222 0
-222 229 0
-10 -222 224 0
-224 230 0
-11 -224 226 0
-226 231 0
-12 -226 0
-8 227 0
-9 -227 228 0
-10 -228 229 0
-11 -229 230 0
-12 -230 231 0
-13 -231 0
6 232 0
-232 233 0
7 -232 234 0
-234 235 0
8 -234 236 0
-236 237 0
9 -236 238 0
-238 239 0
10 -238 240 0
-240 241 0
11 -240 0
7 233 0
-233 242 0
8 -233 235 0
-235 243 0
9 -235 237 0
-237 244 0
10 -237 239 0
-239 245 0
11 -239 241 0
-241 246 0
12 -241 0
8 242 0
9 -242 243 0
10 -243 244 0
11 -244 245 0
12 -245 246 0
13 -246 0
-7 247 0
-247 248 0
-8 -247 249 0
-249 250 0
-9 -249 251 0
-251 252 0
-10 -251 253 0
-253 254 0
-11 -253 255 0
-255 256 0
-12 -255 0
-8 248 0
-248 257 0
-9 -248 250 0
-250 258 0
-10 -250 252 0
-252 259 0
-11 -252 254 0
-254 260 0
-12 -254 256 0
-256 261 0
-13 -256 0
-9 257 0
-10 -257 258 0
-11 -258 259 0
-12 -259 260 0
-13 -260 261 0
-14 -261 0
7 262 0
-262 263 0
8 -262 264 0
-264 265 0
9 -264 266 0
-266 267 0
10 -266 268 0
-268 269 0
11 -268 270 0
-270 271 0
12 -270 0
8 263 0
-263 272 0
9 -263 265 0
-265 273 0
10 -265 267 0
-267 274 0
11 -267 269 0
-269 275 0
12 -269 271 0
-271 276 0
13 -271 0
9 272 0
10 -272 273 0
11 -273 274 0
12 -274 275 0
13 -275 276 0
14 -276 0
-8 277 0
-277 278 0
-9 -277 279 0
-279 280 0
-10 -279 281 0
-281 282 0
-11 -281 283 0
-283 284 0
-12 -283 285 0
-285 286 0
-13 -285 0
-9 278 0
-278 287 0
-10 -278 280 0
-280 288 0
-11 -280 282 0
-282 289 0
-12 -282 284 0
-284 290 0
-13 -284 286 0
-286 291 0
-14 -286 0
-10 287 0
-11 -287 288 0
-12 -288 289 0
-13 -289 290 0
-14 -290 291 0
-15 -291 0
8 292 0
-292 293 0
9 -292 294 0
-294 295 0
10 -294 296 0
-296 297 0
11 -296 298 0
-298 299 0
12 -298 300 0
-300 301 0
13 -300 0
9 293 0
-293 302 0
10 -293 295 0
-295 303 0
11 -295 297 0
-297 304 0
12 -297 299 0
-299 305 0
13 -299 301 0
-301 306 0
14 -301 0
10 302 0
11 -302 303 0
12 -303 304 0
13 -304 305 0
14 -305 306 0
15 -306 0
-9 307 0
-307 308 0
-10 -307 309 0
-309 310 0
-11 -309 311 0
-311 312 0
-12 -311 313 0
-313 314 0
-13 -313 315 0
-315 316 0
-14 -315 0
-10 308 0
-308 317 0
-11 -308 310 0
-310 318 0
-12 -310 312 0
-312 319 0
-13 -312 314 0
-314 320 0
-14 -314 316 0
-316 321 0
-15 -316 0
-11 317 0
-12 -317 318 0
-13 -318 319 0
-14 -319 320 0
-15 -320 321 0
-16 -321 0
9 322 0
-322 323 0
10 -322 324 0
-324 325 0
11 -324 326 0
-326 327 0
12 -326 328 0
-328 329 0
13 -328 330 0
-330 331 0
14 -330 0
10 323 0
-323 332 0
11 -323 325 0
-325 333 0
12 -325 327 0
-327 334 0
13 -327 329 0
-329 335 0
14 -329 331 0
-331 336 0
15 -331 0
11 332 0
12 -332 333 0
13 -333 334 0
14 -334 335 0
15 -335 336 0
16 -336 0
-10 337 0
-337 338 0
-11 -337 339 0
-339 340 0
-12 -339 341 0
-341 342 0
-13 -341 343 0
-343 344 0
-14 -343 345 0
-345 346 0
-15 -345 0
-11 338 0
-338 347 0
-12 -338 340 0
-340 348 0
-13 -340 342 0
-342 349 0
-14 -342 344 0
-344 350 0
-15 -344 346 0
-346 351 0
-16 -346 0
-12 347 0
-13 -347 348 0
-14 -348 349 0
-15 -349 350 0
-16 -350 351 0
-17 -351 0
10 352 0
-352 353 0
11 -352 354 0
-354 355 0
12 -354 356 0
-356 357 0
13 -356 358 0
-358 359 0
14 -358 360 0
-360 361 0
15 -360 0
11 353 0
-353 362 0
12 -353 355 0
-355 363 0
13 -355 357 0
-357 364 0
14 -357 359 0
-359 365 0
15 -359 361 0
-361 366 0
16 -361 0
12 362 0
13 -362 363 0
14 -363 364 0
15 -364 365 0
16 -365 366 0
17 -366 0
-11 367 0
-367 368 0
-12 -367 369 0
-369 370 0
-13 -369 371 0
-371 372 0
-14 -371 373 0
-373 374 0
-15 -373 375 0
-375 376 0
-16 -375 0
-12 368 0
-368 377 0
-13 -368 370 0
-370 378 0
-14 -370 372 0
-372 379 0
-15 -372 374 0
-374 380 0
-16 -374 376 0
-376 381 0
-17 -376 0
-13 377 0
-14 -377 378 0
-15 -378 379 0
-16 -379 380 0
-17 -380 381 0
-18 -381 0
11 382 0
-382 383 0
12 -382 384 0
-384 385 0
13 -384 386 0
-386 387 0
14 -386 388 0
-388 389 0
15 -388 390 0
-390 391 0
16 -390 0
12 383 0
-383 392 0
13 -383 385 0
-385 393 0
14 -385 387 0
-387 394 0
15 -387 389 0
-389 395 0
16 -389 391 0
-391 396 0
17 -391 0
13 392 0
14 -392 393 0
15 -393 394 0
16 -394 395 0
17 -395 396 0
18 -396 0
-12 397 0
-397 398 0
-13 -397 399 0
-399 400 0
-14 -399 401 0
-401 402 0
-15 -401 403 0
-403 404 0
-16 -403 405 0
-405 406 0
-17 -405 0
-13 398 0
-398 407 0
-14 -398 400 0
-400 408 0
-15 -400 402 0
-402 409 0
-16 -402 404 0
-404 410 0
-17 -404 406 0
-406 411 0
-18 -406 0
-14 407 0
-15 -407 408 0
-16 -408 409 0
-17 -409 410 0
-18 -410 411 0
-19 -411 0
12 412 0
-412 413 0
13 -412 414 0
-414 415 0
14 -414 416 0
-416 417 0
15 -416 418 0
-418 419 0
16 -418 420 0
-420 421 0
17 -420 0
13 413 0
-413 422 0
14 -413 415 0
-415 423 0
15 -415 417 0
-417 424 0
16 -417 419 0
-419 425 0
17 -419 421 0
-421 426 0
18 -421 0
14 422 0
15 -422 423 0
16 -423 424 0
17 -424 425 0
18 -425 426 0
19 -426 0
-13 427 0
-427 428 0
-14 -427 429 0
-429 430 0
-15 -429 431 0
-431 432 0
-16 -431 433 0
-433 434 0
-17 -433 435 0
-435 436 0
-18 -435 0
-14 428 0
-428 437 0
-15 -428 430 0
-430 438 0
-16 -430 432 0
-432 439 0
-17 -432 434 0
-434 440 0
-18 -434 436 0
-436 441 0
-19 -436 0
-15 437 0
-16 -437 438 0
-17 -438 439 0
-18 -439 440 0
-19 -440 441 0
-20 -441 0
13 442 0
-442 443 0
14 -442 444 0
-444 445 0
15 -444 446 0
-446 447 0
16 -446 448 0
-448 449 0
17 -448 450 0
-450 451 0
18 -450 0
14 443 0
-443 452 0
15 -443 445 0
-445 453 0
16 -445 447 0
-447 454 0
17 -447 449 0
-449 455 0
18 -449 451 0
-451 456 0
19 -451 0
15 452 0
16 -452 453 0
17 -453 454 0
18 -454 455 0
19 -455 456 0
20 -456 0
-14 457 0
-457 458 0
-15 -457 459 0
-459 460 0
-16 -459 461 0
-461 462 0
-17 -461 463 0
-463 464 0
-18 -463 465 0
-465 466 0
-19 -465 0
-15 458 0
-458 467 0
-16 -458 460 0
-460 468 0
-17 -460 462 0
-462 469 0
-18 -462 464 0
-464 470 0
-19 -464 466 0
-466 471 0
-20 -466 0
-16 467 0
-17 -467 468 0
-18 -468 469 0
-19 -469 470 0
-20 -470 471 0
-21 -471 0
14 472 0
-472 473 0
15 -472 474 0
-474 475 0
16 -474 476 0
-476 477 0
17 -476 478 0
-478 479 0
18 -478 480 0
-480 481 0
19 -480 0
15 473 0
-473 482 0
16 -473 475 0
-475 483 0
17 -475 477 0
-477 484 0
18 -477 479 0
-479 485 0
19 -479 481 0
-481 486 0
20 -481 0
16 482 0
17 -482 483 0
18 -483 484 0
19 -484 485 0
20 -485 486 0
21 -486 0
-15 487 0
-487 488 0
-16 -487 489 0
-489 490 0
-17 -489 491 0
-491 492 0
-18 -491 493 0
-493 494 0
-19 -493 495 0
-495 496 0
-20 -495 0
-16 488 0
-488 497 0
-17 -488 490 0
-490 498 0
-18 -490 492 0
-492 499 0
-19 -492 494 0
-494 500 0
-20 -494 496 0
-496 501 0
-21 -496 0
-17 497 0
-18 -497 498 0
-19 -498 499 0
-20 -499 500 0
-21 -500 501 0
-22 -501 0
15 502 0
-502 503 0
16 -502 504 0
-504 505 0
17 -504 506 0
-506 507 0
18 -506 508 0
-508 509 0
19 -508 510 0
-510 511 0
20 -510 0
16 503 0
-503 512 0
17 -503 505 0
-505 513 0
18 -505 507 0
-507 514 0
19 -507 509 0
-509 515 0
20 -509 511 0
-511 516 0
21 -511 0
17 512 0
18 -512 513 0
19 -513 514 0
20 -514 515 0
21 -515 516 0
22 -516 0
-16 517 0
-517 518 0
-17 -517 519 0
-519 520 0
-18 -519 521 0
-521 522 0
-19 -521 523 0
-523 524 0
-20 -523 525 0
-525 526 0
-21 -525 0
-17 518 0
-518 527 0
-18 -518 520 0
-520 528 0
-19 -520 522 0
-522 529 0
-20 -522 524 0
-524 530 0
-21 -524 526 0
-526 531 0
-22 -526 0
-18 527 0
-19 -527 528 0
-20 -528 529 0
-21 -529 530 0
-22 -530 531 0
-23 -531 0
16 532 0
-532 533 0
17 -532 534 0
-534 535 0
18 -534 536 0
-536 537 0
19 -536 538 0
-538 539 0
20 -538 540 0
-540 541 0
21 -540 0
17 533 0
-533 542 0
18 -533 535 0
-535 543 0
19 -535 537 0
-537 544 0
20 -537 539 0
-539 545 0
21 -539 541 0
-541 546 0
22 -541 0
18 542 0
19 -542 543 0
20 -543 544 0
21 -544 545 0
22 -545 546 0
23 -546 0
-17 547 0
-547 548 0
-18 -547 549 0
-549 550 0
-19 -549 551 0
-551 552 0
-20 -551 553 0
-553 554 0
-21 -553 555 0
-555 556 0
-22 -555 0
-18 548 0
-548 557 0
-19 -548 550 0
-550 558 0
-20 -550 552 0
-552 559 0
-21 -552 554 0
-554 560 0
-22 -554 556 0
-556 561 0
-23 -556 0
-19 557 0
-20 -557 558 0
-21 -558 559 0
-22 -559 560 0
-23 -560 561 0
-24 -561 0
17 562 0
-562 563 0
18 -562 564 0
-564 565 0
19 -564 566 0
-566 567 0
20 -566 568 0
-568 569 0
21 -568 570 0
-570 571 0
22 -570 0
18 563 0
-563 572 0
19 -563 565 0
-565 573 0
20 -565 567 0
-567 574 0
21 -567 569 0
-569 575 0
22 -569 571 0
-571 576 0
23 -571 0
19 572 0
20 -572 573 0
21 -573 574 0
22 -574 575 0
23 -575 576 0
24 -576 0
-18 577 0
-577 578 0
-19 -577 579 0
-579 580 0
-20 -579 581 0
-581 582 0
-21 -581 583 0
-583 584 0
-22 -583 585 0
-585 586 0
-23 -585 0
-19 578 0
-578 587 0
-20 -578 580 0
-580 588 0
-21 -580 582 0
-582 589 0
-22 -582 584 0
-584 590 0
-23 -584 586 0
-586 591 0
-24 -586 0
-20 587 0
-21 -587 588 0
-22 -588 589 0
-23 -589 590 0
-24 -590 591 0
-25 -591 0
18 592 0
-592 593 0
19 -592 594 0
-594 595 0
20 -594 596 0
-596 597 0
21 -596 598 0
-598 599 0
22 -598 600 0
-600 601 0
23 -600 0
19 593 0
-593 602 0
20 -593 595 0
-595 603 0
21 -595 597 0
-597 604 0
22 -597 599 0
-599 605 0
23 -599 601 0
-601 606 0
24 -601 0
20 602 0
21 -602 603 0
22 -603 604 0
23 -604 605 0
24 -605 606 0
25 -606 0
-19 607 0
-607 608 0
-20 -607 609 0
-609 610 0
-21 -609 611 0
-611 612 0
-22 -611 613 0
-613 614 0
-23 -613 615 0
-615 616 0
-24 -615 0
-20 608 0
-608 617 0
-21 -608 610 0
-610 618 0
-22 -610 612 0
-612 619 0
-23 -612 614 0
-614 620 0
-24 -614 616 0
-616 621 0
-25 -616 0
-21 617 0
-22 -617 618 0
-23 -618 619 0
-24 -619 620 0
-25 -620 621 0
-26 -621 0
19 622 0
-622 623 0
20 -622 624 0
-624 625 0
21 -624 626 0
-626 627 0
22 -626 628 0
-628 629 0
23 -628 630 0
-630 631 0
24 -630 0
20 623 0
-623 632 0
21 -623 625 0
-625 633 0
22 -625 627 0
-627 634 0
23 -627 629 0
-629 635 0
24 -629 631 0
-631 636 0
25 -631 0
21 632 0
22 -632 633 0
23 -633 634 0
24 -634 635 0
25 -635 636 0
26 -636 0
-20 637 0
-637 638 0
-21 -637 639 0
-639 640 0
-22 -639 641 0
-641 642 0
-23 -641 643 0
-643 644 0
-24 -643 645 0
-645 646 0
-25 -645 0
-21 638 0
-638 647 0
-22 -638 640 0
-640 648 0
-23 -640 642 0
-642 649 0
-24 -642 644 0
-644 650 0
-25 -644 646 0
-646 651 0
-26 -646 0
-22 647 0
-23 -647 648 0
-24 -648 649 0
-25 -649 650 0
-26 -650 651 0
-27 -651 0
20 652 0
-652 653 0
21 -652 654 0
-654 655 0
22 -654 656 0
-656 657 0
23 -656 658 0
-658 659 0
24 -658 660 0
-660 661 0
25 -660 0
21 653 0
-653 662 0
22 -653 655 0
-655 663 0
23 -655 657 0
-657 664 0
24 -657 659 0
-659 665 0
25 -659 661 0
-661 666 0
26 -661 0
22 662 0
23 -662 663 0
24 -663 664 0
25 -664 665 0
26 -665 666 0
27 -666 0
-21 667 0
-667 668 0
-22 -667 669 0
-669 670 0
-23 -669 671 0
-671 672 0
-24 -671 673 0
-673 674 0
-25 -673 675 0
-675 676 0
-26 -675 0
-22 668 0
-668 677 0
-23 -668 670 0
-670 678 0
-24 -670 672 0
-672 679 0
-25 -672 674 0
-674 680 0
-26 -674 676 0
-676 681 0
-27 -676 0
-23 677 0
-24 -677 678 0
-25 -678 679 0
-26 -679 680 0
-27 -680 681 0
-28 -681 0
21 682 0
-682 683 0
22 -682 684 0
-684 685 0
23 -684 686 0
-686 687 0
24 -686 688 0
-688 689 0
25 -688 690 0
-690 691 0
26 -690 0
22 683 0
-683 692 0
23 -683 685 0
-685 693 0
24 -685 687 0
-687 694 0
25 -687 689 0
-689 695 0
26 -689 691 0
-691 696 0
27 -691 0
23 692 0
24 -692 693 0
25 -693 694 0
26 -694 695 0
27 -695 696 0
28 -696 0
-22 697 0
-697 698 0
-23 -697 699 0
-699 700 0
-24 -699 701 0
-701 702 0
-25 -701 703 0
-703 704 0
-26 -703 705 0
-705 706 0
-27 -705 0
-23 698 0
-698 707 0
-24 -698 700 0
-700 708 0
-25 -700 702 0
-702 709 0
-26 -702 704 0
-704 710 0
-27 -704 706 0
-706 711 0
-28 -706 0
-24 707 0
-25 -707 708 0
-26 -708 709 0
-27 -709 710 0
-28 -710 711 0
-29 -711 0
22 712 0
-712 713 0
23 -712 714 0
-714 715 0
24 -714 716 0
-716 717 0
25 -716 718 0
-718 719 0
26 -718 720 0
-720 721 0
27 -720 0
23 713 0
-713 722 0
24 -713 715 0
-715 723 0
25 -715 717 0
-717 724 0
26 -717 719 0
-719 725 0
27 -719 721 0
-721 726 0
28 -721 0
24 722 0
25 -722 723 0
26 -723 724 0
27 -724 725 0
28 -725 726 0
29 -726 0
-23 727 0
-727 728 0
-24 -727 729 0
-729 730 0
-25 -729 731 0
-731 732 0
-26 -731 733 0
-733 734 0
-27 -733 735 0
-735 736 0
-28 -735 0
-24 728 0
-728 737 0
-25 -728 730 0
-730 738 0
-26 -730 732 0
-732 739 0
-27 -732 734 0
-734 740 0
-28 -734 736 0
-736 741 0
-29 -736 0
-25 737 0
-26 -737 738 0
-27 -738 739 0
-28 -739 740 0
-29 -740 741 0
-30 -741 0
23 742 0
-742 743 0
24 -742 744 0
-744 745 0
25 -744 746 0
-746 747 0
26 -746 748 0
-748 749 0
27 -748 750 0
-750 751 0
28 -750 0
24 743 0
-743 752 0
25 -743 745 0
-745 753 0
26 -745 747 0
-747 754 0
27 -747 749 0
-749 755 0
28 -749 751 0
-751 756 0
29 -751 0
25 752 0
26 -752 753 0
27 -753 754 0
28 -754 755 0
29 -755 756 0
30 -756 0
-24 757 0
-757 758 0
-25 -757 759 0
-759 760 0
-26 -759 761 0
-761 762 0
-27 -761 763 0
-763 764 0
-28 -763 765 0
-765 766 0
-29 -765 0
-25 758 0
-758 767 0
-26 -758 760 0
-760 768 0
-27 -760 762 0
-762 769 0
-28 -762 764 0
-764 770 0
-29 -764 766 0
-766 771 0
-30 -766 0
-26 767 0
-27 -767 768 0
-28 -768 769 0
-29 -769 770 0
-30 -770 771 0
-31 -771 0
24 772 0
-772 773 0
25 -772 774 0
-774 775 0
26 -774 776 0
-776 777 0
27 -776 778 0
-778 779 0
28 -778 780 0
-780 781 0
29 -780 0
25 773 0
-773 782 0
26 -773 775 0
-775 783 0
27 -775 777 0
-777 784 0
28 -777 779 0
-779 785 0
29 -779 781 0
-781 786 0
30 -781 0
26 782 0
27 -782 783 0
28 -783 784 0
29 -784 785 0
30 -785 786 0
31 -786 0
-25 787 0
-787 788 0
-26 -787 789 0
-789 790 0
-27 -789 791 0
-791 792 0
-28 -791 793 0
-793 794 0
-29 -793 795 0
-795 796 0
-30 -795 0
-26 788 0
-788 797 0
-27 -788 790 0
-790 798 0
-28 -790 792 0
-792 799 0
-29 -792 794 0
-794 800 0
-30 -794 796 0
-796 801 0
-31 -796 0
-27 797 0
-28 -797 798 0
-29 -798 799 0
-30 -799 800 0
-31 -800 801 0
-32 -801 0
25 802 0
-802 803 0
26 -802 804 0
-804 805 0
27 -804 806 0
-806 807 0
28 -806 808 0
-808 809 0
29 -808 810 0
-810 811 0
30 -810 0
26 803 0
-803 812 0
27 -803 805 0
-805 813 0
28 -805 807 0
-807 814 0
29 -807 809 0
-809 815 0
30 -809 811 0
-811 816 0
31 -811 0
27 812 0
28 -812 813 0
29 -813 814 0
30 -814 815 0
31 -815 816 0
32 -816 0
-26 817 0
-817 818 0
-27 -817 819 0
-819 820 0
-28 -819 821 0
-821 822 0
-29 -821 823 0
-823 824 0
-30 -823 825 0
-825 826 0
-31 -825 0
-27 818 0
-818 827 0
-28 -818 820 0
-820 828 0
-29 -820 822 0
-822 829 0
-30 -822 824 0
-824 830 0
-31 -824 826 0
-826 831 0
-32 -826 0
-28 827 0
-29 -827 828 0
-30 -828 829 0
-31 -829 830 0
-32 -830 831 0
-33 -831 0
26 832 0
-832 833 0
27 -832 834 0
-834 835 0
28 -834 836 0
-836 837 0
29 -836 838 0
-838 839 0
30 -838 840 0
-840 841 0
31 -840 0
27 833 0
-833 842 0
28 -833 835 0
-835 843 0
29 -835 837 0
-837 844 0
30 -837 839 0
-839 845 0
31 -839 841 0
-841 846 0
32 -841 0
28 842 0
29 -842 843 0
30 -843 844 0
31 -844 845 0
32 -845 846 0
33 -846 0
-27 847 0
-847 848 0
-28 -847 849 0
-849 850 0
-29 -849 851 0
-851 852 0
-30 -851 853 0
-853 854 0
-31 -853 855 0
-855 856 0
-32 -855 0
-28 848 0
-848 857 0
-29 -848 850 0
-850 858 0
-30 -850 852 0
-852 859 0
-31 -852 854 0
-854 860 0
-32 -854 856 0
-856 861 0
-33 -856 0
-29 857 0
-30 -857 858 0
-31 -858 859 0
-32 -859 860 0
-33 -860 861 0
-34 -861 0
27 862 0
-862 863 0
28 -862 864 0
-864 865 0
29 -864 866 0
-866 867 0
30 -866 868 0
-868 869 0
31 -868 870 0
-870 871 0
32 -870 0
28 863 0
-863 872 0
29 -863 865 0
-865 873 0
30 -865 867 0
-867 874 0
31 -867 869 0
-869 875 0
32 -869 871 0
-871 876 0
33 -871 0
29 872 0
30 -872 873 0
31 -873 874 0
32 -874 875 0
33 -875 876 0
34 -876 0
-28 877 0
-877 878 0
-29 -877 879 0
-879 880 0
-30 -879 881 0
-881 882 0
-31 -881 883 0
-883 884 0
-32 -883 885 0
-885 886 0
-33 -885 0
-29 878 0
-878 887 0
-30 -878 880 0
-880 888 0
-31 -880 882 0
-882 889 0
-32 -882 884 0
-884 890 0
-33 -884 886 0
-886 891 0
-34 -886 0
-30 887 0
-31 -887 888 0
-32 -888 889 0
-33 -889 890 0
-34 -890 891 0
-35 -891 0
28 892 0
-892 893 0
29 -892 894 0
-894 895 0
30 -894 896 0
-896 897 0
31 -896 898 0
-898 899 0
32 -898 900 0
-900 901 0
33 -900 0
29 893 0
-893 902 0
30 -893 895 0
-895 903 0
31 -895 897 0
-897 904 0
32 -897 899 0
-899 905 0
33 -899 901 0
-901 906 0
34 -901 0
30 902 0
31 -902 903 0
32 -903 904 0
33 -904 905 0
34 -905 906 0
35 -906 0
-29 907 0
-907 908 0
-30 -907 909 0
-909 910 0
-31 -909 911 0
-911 912 0
-32 -911 913 0
-913 914 0
-33 -913 915 0
-915 916 0
-34 -915 0
-30 908 0
-908 917 0
-31 -908 910 0
-910 918 0
-32 -910 912 0
-912 919 0
-33 -912 914 0
-914 920 0
-34 -914 916 0
-916 921 0
-35 -916 0
-31 917 0
-32 -917 918 0
-33 -918 919 0
-34 -919 920 0
-35 -920 921 0
-36 -921 0
29 922 0
-922 923 0
30 -922 924 0
-924 925 0
31 -924 926 0
-926 927 0
32 -926 928 0
-928 929 0
33 -928 930 0
-930 931 0
34 -930 0
30 923 0
-923 932 0
31 -923 925 0
-925 933 0
32 -925 927 0
-927 934 0
33 -927 929 0
-929 935 0
34 -929 931 0
-931 936 0
35 -931 0
31 932 0
32 -932 933 0
33 -933 934 0
34 -934 935 0
35 -935 936 0
36 -936 0
-30 937 0
-937 938 0
-31 -937 939 0
-939 940 0
-32 -939 941 0
-941 942 0
-33 -941 943 0
-943 944 0
-34 -943 945 0
-945 946 0
-35 -945 0
-31 938 0
-938 947 0
-32 -938 940 0
-940 948 0
-33 -940 942 0
-942 949 0
-34 -942 944 0
-944 950 0
-35 -944 946 0
-946 951 0
-36 -946 0
-32 947 0
-33 -947 948 0
-34 -948 949 0
-35 -949 950 0
-36 -950 951 0
-37 -951 0
30 952 0
-952 953 0
31 -952 954 0
-954 955 0
32 -954 956 0
-956 957 0
33 -956 958 0
-958 959 0
34 -958 960 0
-960 961 0
35 -960 0
31 953 0
-953 962 0
32 -953 955 0
-955 963 0
33 -955 957 0
-957 964 0
34 -957 959 0
-959 965 0
35 -959 961 0
-961 966 0
36 -961 0
32 962 0
33 -962 963 0
34 -963 964 0
35 -964 965 0
36 -965 966 0
37 -966 0
-31 967 0
-967 968 0
-32 -967 969 0
-969 970 0
-33 -969 971 0
-971 972 0
-34 -971 973 0
-973 974 0
-35 -973 975 0
-975 976 0
-36 -975 0
-32 968 0
-968 977 0
-33 -968 970 0
-970 978 0
-34 -970 972 0
-972 979 0
-35 -972 974 0
-974 980 0
-36 -974 976 0
-976 981 0
-37 -976 0
-33 977 0
-34 -977 978 0
-35 -978 979 0
-36 -979 980 0
-37 -980 981 0
-38 -981 0
31 982 0
-982 983 0
32 -982 984 0
-984 985 0
33 -984 986 0
-986 987 0
34 -986 988 0
-988 989 0
35 -988 990 0
-990 991 0
36 -990 0
32 983 0
-983 992 0
33 -983 985 0
-985 993 0
34 -985 987 0
-987 994 0
35 -987 989 0
-989 995 0
36 -989 991 0
-991 996 0
37 -991 0
33 992 0
34 -992 993 0
35 -993 994 0
36 -994 995 0
37 -995 996 0
38 -996 0
-32 997 0
-997 998 0
-33 -997 999 0
-999 1000 0
-34 -999 1001 0
-1001 1002 0
-35 -1001 1003 0
-1003 1004 0
-36 -1003 1005 0
-1005 1006 0
-37 -1005 0
-33 998 0
-998 1007 0
-34 -998 1000 0
-1000 1008 0
-35 -1000 1002 0
-1002 1009 0
-36 -1002 1004 0
-1004 1010 0
-37 -1004 1006 0
-1006 1011 0
-38 -1006 0
-34 1007 0
-35 -1007 1008 0
-36 -1008 1009 0
-37 -1009 1010 0
-38 -1010 1011 0
-39 -1011 0
32 1012 0
-1012 1013 0
33 -1012 1014 0
-1014 1015 0
34 -1014 1016 0
-1016 1017 0
35 -1016 1018 0
-1018 1019 0
36 -1018 1020 0
-1020 1021 0
37 -1020 0
33 1013 0
-1013 1022 0
34 -1013 1015 0
-1015 1023 0
35 -1015 1017 0
-1017 1024 0
36 -1017 1019 0
-1019 1025 0
37 -1019 1021 0
-1021 1026 0
38 -1021 0
34 1022 0
35 -1022 1023 0
36 -1023 1024 0
37 -1024 1025 0
38 -1025 1026 0
39 -1026 0
-33 1027 0
-1027 1028 0
-34 -1027 1029 0
-1029 1030 0
-35 -1029 1031 0
-1031 1032 0
-36 -1031 1033 0
-1033 1034 0
-37 -1033 1035 0
-1035 1036 0
-38 -1035 0
-34 1028 0
-1028 1037 0
-35 -1028 1030 0
-1030 1038 0
-36 -1030 1032 0
-1032 1039 0
-37 -1032 1034 0
-1034 1040 0
-38 -1034 1036 0
-1036 1041 0
-39 -1036 0
-35 1037 0
-36 -1037 1038 0
-37 -1038 1039 0
-38 -1039 1040 0
-39 -1040 1041 0
-40 -1041 0
33 1042 0
-1042 1043 0
34 -1042 1044 0
-1044 1045 0
35 -1044 1046 0
-1046 1047 0
36 -1046 1048 0
-1048 1049 0
37 -1048 1050 0
-1050 1051 0
38 -1050 0
34 1043 0
-1043 1052 0
35 -1043 1045 0
-1045 1053 0
36 -1045 1047 0
-1047 1054 0
37 -1047 1049 0
-1049 1055 0
38 -1049 1051 0
-1051 1056 0
39 -1051 0
35 1052 0
36 -1052 1053 0
37 -1053 1054 0
38 -1054 1055 0
39 -1055 1056 0
40 -1056 0
-34 1057 0
-1057 1058 0
-35 -1057 1059 0
-1059 1060 0
-36 -1059 1061 0
-1061 1062 0
-37 -1061 1063 0
-1063 1064 0
-38 -1063 1065 0
-1065 1066 0
-39 -1065 0
-35 1058 0
-1058 1067 0
-36 -1058 1060 0
-1060 1068 0
-37 -1060 1062 0
-1062 1069 0
-38 -1062 1064 0
-1064 1070 0
-39 -1064 1066 0
-1066 1071 0
-40 -1066 0
-36 1067 0
-37 -1067 1068 0
-38 -1068 1069 0
-39 -1069 1070 0
-40 -1070 1071 0
-41 -1071 0
34 1072 0
-1072 1073 0
35 -1072 1074 0
-1074 1075 0
36 -1074 1076 0
-1076 1077 0
37 -1076 1078 0
-1078 1079 0
38 -1078 1080 0
-1080 1081 0
39 -1080 0
35 1073 0
-1073 1082 0
36 -1073 1075 0
-1075 1083 0
37 -1075 1077 0
-1077 1084 0
38 -1077 1079 0
-1079 1085 0
39 -1079 1081 0
-1081 1086 0
40 -1081 0
36 1082 0
37 -1082 1083 0
38 -1083 1084 0
39 -1084 1085 0
40 -1085 1086 0
41 -1086 0
-35 1087 0
-1087 1088 0
-36 -1087 1089 0
-1089 1090 0
-37 -1089 1091 0
-1091 1092 0
-38 -1091 1093 0
-1093 1094 0
-39 -1093 1095 0
-1095 1096 0
-40 -1095 0
-36 1088 0
-1088 1097 0
-37 -1088 1090 0
-1090 1098 0
-38 -1090 1092 0
-1092 1099 0
-39 -1092 1094 0
-1094 1100 0
-40 -1094 1096 0
-1096 1101 0
-41 -1096 0
-37 1097 0
-38 -1097 1098 0
-39 -1098 1099 0
-40 -1099 1100 0
-41 -1100 1101 0
-42 -1101 0
35 1102 0
-1102 1103 0
36 -1102 1104 0
-1104 1105 0
37 -1104 1106 0
-1106 1107 0
38 -1106 1108 0
-1108 1109 0
39 -1108 1110 0
-1110 1111 0
40 -1110 0
36 1103 0
-1103 1112 0
37 -1103 1105 0
-1105 1113 0
38 -1105 1107 0
-1107 1114 0
39 -1107 1109 0
-1109 1115 0
40 -1109 1111 0
-1111 1116 0
41 -1111 0
37 1112 0
38 -1112 1113 0
39 -1113 1114 0
40 -1114 1115 0
41 -1115 1116 0
42 -1116 0
-36 1117 0
-1117 1118 0
-37 -1117 1119 0
-1119 1120 0
-38 -1119 1121 0
-1121 1122 0
-39 -1121 1123 0
-1123 1124 0
-40 -1123 1125 0
-1125 1126 0
-41 -1125 0
-37 1118 0
-1118 1127 0
-38 -1118 1120 0
-1120 1128 0
-39 -1120 1122 0
-1122 1129 0
-40 -1122 1124 0
-1124 1130 0
-41 -1124 1126 0
-1126 1131 0
-42 -1126 0
-38 1127 0
-39 -1127 1128 0
-40 -1128 1129 0
-41 -1129 1130 0
-42 -1130 1131 0
-43 -1131 0
36 1132 0
-1132 1133 0
37 -1132 1134 0
-1134 1135 0
38 -1134 1136 0
-1136 1137 0
39 -1136 1138 0
-1138 1139 0
40 -1138 1140 0
-1140 1141 0
41 -1140 0
37 1133 0
-1133 1142 0
38 -1133 1135 0
-1135 1143 0
39 -1135 1137 0
-1137 1144 0
40 -1137 1139 0
-1139 1145 0
41 -1139 1141 0
-1141 1146 0
42 -1141 0
38 1142 0
39 -1142 1143 0
40 -1143 1144 0
41 -1144 1145 0
42 -1145 1146 0
43 -1146 0
-37 1147 0
-1147 1148 0
-38 -1147 1149 0
-1149 1150 0
-39 -1149 1151 0
-1151 1152 0
-40 -1151 1153 0
-1153 1154 0
-41 -1153 1155 0
-1155 1156 0
-42 -1155 0
-38 1148 0
-1148 1157 0
-39 -1148 1150 0
-1150 1158 0
-40 -1150 1152 0
-1152 1159 0
-41 -1152 1154 0
-1154 1160 0
-42 -1154 1156 0
-1156 1161 0
-43 -1156 0
-39 1157 0
-40 -1157 1158 0
-41 -1158 1159 0
-42 -1159 1160 0
-43 -1160 1161 0
-44 -1161 0
37 1162 0
-1162 1163 0
38 -1162 1164 0
-1164 1165 0
39 -1164 1166 0
-1166 1167 0
40 -1166 1168 0
-1168 1169 0
41 -1168 1170 0
-1170 1171 0
42 -1170 0
38 1163 0
-1163 1172 0
39 -1163 1165 0
-1165 1173 0
40 -1165 1167 0
-1167 1174 0
41 -1167 1169 0
-1169 1175 0
42 -1169 1171 0
-1171 1176 0
43 -1171 0
39 1172 0
40 -1172 1173 0
41 -1173 1174 0
42 -1174 1175 0
43 -1175 1176 0
44 -1176 0
-38 1177 0
-1177 1178 0
-39 -1177 1179 0
-1179 1180 0
-40 -1179 1181 0
-1181 1182 0
-41 -1181 1183 0
-1183 1184 0
-42 -1183 1185 0
-1185 1186 0
-43 -1185 0
-39 1178 0
-1178 1187 0
-40 -1178 1180 0
-1180 1188 0
-41 -1180 1182 0
-1182 1189 0
-42 -1182 1184 0
-1184 1190 0
-43 -1184 1186 0
-1186 1191 0
-44 -1186 0
-40 1187 0
-41 -1187 1188 0
-42 -1188 1189 0
-43 -1189 1190 0
-44 -1190 1191 0
-45 -1191 0
38 1192 0
-1192 1193 0
39 -1192 1194 0
-1194 1195 0
40 -1194 1196 0
-1196 1197 0
41 -1196 1198 0
-1198 1199 0
42 -1198 1200 0
-1200 1201 0
43 -1200 0
39 1193 0
-1193 1202 0
40 -1193 1195 0
-1195 1203 0
41 -1195 1197 0
-1197 1204 0
42 -1197 1199 0
-1199 1205 0
43 -1199 1201 0
-1201 1206 0
44 -1201 0
40 1202 0
41 -1202 1203 0
42 -1203 1204 0
43 -1204 1205 0
44 -1205 1206 0
45 -1206 0
-39 1207 0
-1207 1208 0
-40 -1207 1209 0
-1209 1210 0
-41 -1209 1211 0
-1211 1212 0
-42 -1211 1213 0
-1213 1214 0
-43 -1213 1215 0
-1215 1216 0
-44 -1215 0
-40 1208 0
-1208 1217 0
-41 -1208 1210 0
-1210 1218 0
-42 -1210 1212 0
-1212 1219 0
-43 -1212 1214 0
-1214 1220 0
-44 -1214 1216 0
-1216 1221 0
-45 -1216 0
-41 1217 0
-42 -1217 1218 0
-43 -1218 1219 0
-44 -1219 1220 0
-45 -1220 1221 0
-46 -1221 0
39 1222 0
-1222 1223 0
40 -1222 1224 0
-1224 1225 0
41 -1224 1226 0
-1226 1227 0
42 -1226 1228 0
-1228 1229 0
43 -1228 1230 0
-1230 1231 0
44 -1230 0
40 1223 0
-1223 1232 0
41 -1223 1225 0
-1225 1233 0
42 -1225 1227 0
-1227 1234 0
43 -1227 1229 0
-1229 1235 0
44 -1229 1231 0
-1231 1236 0
45 -1231 0
41 1232 0
42 -1232 1233 0
43 -1233 1234 0
44 -1234 1235 0
45 -1235 1236 0
46 -1236 0
-40 1237 0
-1237 1238 0
-41 -1237 1239 0
-1239 1240 0
-42 -1239 1241 0
-1241 1242 0
-43 -1241 1243 0
-1243 1244 0
-44 -1243 1245 0
-1245 1246 0
-45 -1245 0
-41 1238 0
-1238 1247 0
-42 -1238 1240 0
-1240 1248 0
-43 -1240 1242 0
-1242 1249 0
-44 -1242 1244 0
-1244 1250 0
-45 -1244 1246 0
-1246 1251 0
-46 -1246 0
-42 1247 0
-43 -1247 1248 0
-44 -1248 1249 0
-45 -1249 1250 0
-46 -1250 1251 0
-47 -1251 0
40 1252 0
-1252 1253 0
41 -1252 1254 0
-1254 1255 0
42 -1254 1256 0
-1256 1257 0
43 -1256 1258 0
-1258 1259 0
44 -1258 1260 0
-1260 1261 0
45 -1260 0
41 1253 0
-1253 1262 0
42 -1253 1255 0
-1255 1263 0
43 -1255 1257 0
-1257 1264 0
44 -1257 1259 0
-1259 1265 0
45 -1259 1261 0
-1261 1266 0
46 -1261 0
42 1262 0
43 -1262 1263 0
44 -1263 1264 0
45 -1264 1265 0
46 -1265 1266 0
47 -1266 0
-41 1267 0
-1267 1268 0
-42 -1267 1269 0
-1269 1270 0
-43 -1269 1271 0
-1271 1272 0
-44 -1271 1273 0
-1273 1274 0
-45 -1273 1275 0
-1275 1276 0
-46 -1275 0
-42 1268 0
-1268 1277 0
-43 -1268 1270 0
-1270 1278 0
-44 -1270 1272 0
-1272 1279 0
-45 -1272 1274 0
-1274 1280 0
-46 -1274 1276 0
-1276 1281 0
-47 -1276 0
-43 1277 0
-44 -1277 1278 0
-45 -1278 1279 0
-46 -1279 1280 0
-47 -1280 1281 0
-48 -1281 0
41 1282 0
-1282 1283 0
42 -1282 1284 0
-1284 1285 0
43 -1284 1286 0
-1286 1287 0
44 -1286 1288 0
-1288 1289 0
45 -1288 1290 0
-1290 1291 0
46 -1290 0
42 1283 0
-1283 1292 0
43 -1283 1285 0
-1285 1293 0
44 -1285 1287 0
-1287 1294 0
45 -1287 1289 0
-1289 1295 0
46 -1289 1291 0
-1291 1296 0
47 -1291 0
43 1292 0
44 -1292 1293 0
45 -1293 1294 0
46 -1294 1295 0
47 -1295 1296 0
48 -1296 0
-42 1297 0
-1297 1298 0
-43 -1297 1299 0
-1299 1300 0
-44 -1299 1301 0
-1301 1302 0
-45 -1301 1303 0
-1303 1304 0
-46 -1303 1305 0
-1305 1306 0
-47 -1305 0
-43 1298 0
-1298 1307 0
-44 -1298 1300 0
-1300 1308 0
-45 -1300 1302 0
-1302 1309 0
-46 -1302 1304 0
-1304 1310 0
-47 -1304 1306 0
-1306 1311 0
-48 -1306 0
-44 1307 0
-45 -1307 1308 0
-46 -1308 1309 0
-47 -1309 1310 0
-48 -1310 1311 0
-49 -1311 0
42 1312 0
-1312 1313 0
43 -1312 1314 0
-1314 1315 0
44 -1314 1316 0
-1316 1317 0
45 -1316 1318 0
-1318 1319 0
46 -1318 1320 0
-1320 1321 0
47 -1320 0
43 1313 0
-1313 1322 0
44 -1313 1315 0
-1315 1323 0
45 -1315 1317 0
-1317 1324 0
46 -1317 1319 0
-1319 1325 0
47 -1319 1321 0
-1321 1326 0
48 -1321 0
44 1322 0
45 -1322 1323 0
46 -1323 1324 0
47 -1324 1325 0
48 -1325 1326 0
49 -1326 0
-43 1327 0
-1327 1328 0
-44 -1327 1329 0
-1329 1330 0
-45 -1329 1331 0
-1331 1332 0
-46 -1331 1333 0
-1333 1334 0
-47 -1333 1335 0
-1335 1336 0
-48 -1335 0
-44 1328 0
-1328 1337 0
-45 -1328 1330 0
-1330 1338 0
-46 -1330 1332 0
-1332 1339 0
-47 -1332 1334 0
-1334 1340 0
-48 -1334 1336 0
-1336 1341 0
-49 -1336 0
-45 1337 0
-46 -1337 1338 0
-47 -1338 1339 0
-48 -1339 1340 0
-49 -1340 1341 0
-50 -1341 0
43 1342 0
-1342 1343 0
44 -1342 1344 0
-1344 1345 0
45 -1344 1346 0
-1346 1347 0
46 -1346 1348 0
-1348 1349 0
47 -1348 1350 0
-1350 1351 0
48 -1350 0
44 1343 0
-1343 1352 0
45 -1343 1345 0
-1345 1353 0
46 -1345 1347 0
-1347 1354 0
47 -1347 1349 0
-1349 1355 0
48 -1349 1351 0
-1351 1356 0
49 -1351 0
45 1352 0
46 -1352 1353 0
47 -1353 1354 0
48 -1354 1355 0
49 -1355 1356 0
50 -1356 0
-44 1357 0
-1357 1358 0
-45 -1357 1359 0
-1359 1360 0
-46 -1359 1361 0
-1361 1362 0
-47 -1361 1363 0
-1363 1364 0
-48 -1363 1365 0
-1365 1366 0
-49 -1365 0
-45 1358 0
-1358 1367 0
-46 -1358 1360 0
-1360 1368 0
-47 -1360 1362 0
-1362 1369 0
-48 -1362 1364 0
-1364 1370 0
-49 -1364 1366 0
-1366 1371 0
-50 -1366 0
-46 1367 0
-47 -1367 1368 0
-48 -1368 1369 0
-49 -1369 1370 0
-50 -1370 1371 0
-51 -1371 0
44 1372 0
-1372 1373 0
45 -1372 1374 0
-1374 1375 0
46 -1374 1376 0
-1376 1377 0
47 -1376 1378 0
-1378 1379 0
48 -1378 1380 0
-1380 1381 0
49 -1380 0
45 1373 0
-1373 1382 0
46 -1373 1375 0
-1375 1383 0
47 -1375 1377 0
-1377 1384 0
48 -1377 1379 0
-1379 1385 0
49 -1379 1381 0
-1381 1386 0
50 -1381 0
46 1382 0
47 -1382 1383 0
48 -1383 1384 0
49 -1384 1385 0
50 -1385 1386 0
51 -1386 0
-45 1387 0
-1387 1388 0
-46 -1387 1389 0
-1389 1390 0
-47 -1389 1391 0
-1391 1392 0
-48 -1391 1393 0
-1393 1394 0
-49 -1393 1395 0
-1395 1396 0
-50 -1395 0
-46 1388 0
-1388 1397 0
-47 -1388 1390 0
-1390 1398 0
-48 -1390 1392 0
-1392 1399 0
-49 -1392 1394 0
-1394 1400 0
-50 -1394 1396 0
-1396 1401 0
-51 -1396 0
-47 1397 0
-48 -1397 1398 0
-49 -1398 1399 0
-50 -1399 1400 0
-51 -1400 1401 0
-52 -1401 0
45 1402 0
-1402 1403 0
46 -1402 1404 0
-1404 1405 0
47 -1404 1406 0
-1406 1407 0
48 -1406 1408 0
-1408 1409 0
49 -1408 1410 0
-1410 1411 0
50 -1410 0
46 1403 0
-1403 1412 0
47 -1403 1405 0
-1405 1413 0
48 -1405 1407 0
-1407 1414 0
49 -1407 1409 0
-1409 1415 0
50 -1409 1411 0
-1411 1416 0
51 -1411 0
47 1412 0
48 -1412 1413 0
49 -1413 1414 0
50 -1414 1415 0
51 -1415 1416 0
52 -1416 0
-46 1417 0
-1417 1418 0
-47 -1417 1419 0
-1419 1420 0
-48 -1419 1421 0
-1421 1422 0
-49 -1421 1423 0
-1423 1424 0
-50 -1423 1425 0
-1425 1426 0
-51 -1425 0
-47 1418 0
-1418 1427 0
-48 -1418 1420 0
-1420 1428 0
-49 -1420 1422 0
-1422 1429 0
-50 -1422 1424 0
-1424 1430 0
-51 -1424 1426 0
-1426 1431 0
-52 -1426 0
-48 1427 0
-49 -1427 1428 0
-50 -1428 1429 0
-51 -1429 1430 0
-52 -1430 1431 0
-53 -1431 0
46 1432 0
-1432 1433 0
47 -1432 1434 0
-1434 1435 0
48 -1434 1436 0
-1436 1437 0
49 -1436 1438 0
-1438 1439 0
50 -1438 1440 0
-1440 1441 0
51 -1440 0
47 1433 0
-1433 1442 0
48 -1433 1435 0
-1435 1443 0
49 -1435 1437 0
-1437 1444 0
50 -1437 1439 0
-1439 1445 0
51 -1439 1441 0
-1441 1446 0
52 -1441 0
48 1442 0
49 -1442 1443 0
50 -1443 1444 0
51 -1444 1445 0
52 -1445 1446 0
53 -1446 0
-47 1447 0
-1447 1448 0
-48 -1447 1449 0
-1449 1450 0
-49 -1449 1451 0
-1451 1452 0
-50 -1451 1453 0
-1453 1454 0
-51 -1453 1455 0
-1455 1456 0
-52 -1455 0
-48 1448 0
-1448 1457 0
-49 -1448 1450 0
-1450 1458 0
-50 -1450 1452 0
-1452 1459 0
-51 -1452 1454 0
-1454 1460 0
-52 -1454 1456 0
-1456 1461 0
-53 -1456 0
-49 1457 0
-50 -1457 1458 0
-51 -1458 1459 0
-52 -1459 1460 0
-53 -1460 1461 0
-54 -1461 0
47 1462 0
-1462 1463 0
48 -1462 1464 0
-1464 1465 0
49 -1464 1466 0
-1466 1467 0
50 -1466 1468 0
-1468 1469 0
51 -1468 1470 0
-1470 1471 0
52 -1470 0
48 1463 0
-1463 1472 0
49 -1463 1465 0
-1465 1473 0
50 -1465 1467 0
-1467 1474 0
51 -1467 1469 0
-1469 1475 0
52 -1469 1471 0
-1471 1476 0
53 -1471 0
49 1472 0
50 -1472 1473 0
51 -1473 1474 0
52 -1474 1475 0
53 -1475 1476 0
54 -1476 0
-48 1477 0
-1477 1478 0
-49 -1477 1479 0
-1479 1480 0
-50 -1479 1481 0
-1481 1482 0
-51 -1481 1483 0
-1483 1484 0
-52 -1483 1485 0
-1485 1486 0
-53 -1485 0
-49 1478 0
-1478 1487 0
-50 -1478 1480 0
-1480 1488 0
-51 -1480 1482 0
-1482 1489 0
-52 -1482 1484 0
-1484 1490 0
-53 -1484 1486 0
-1486 1491 0
-54 -1486 0
-50 1487 0
-51 -1487 1488 0
-52 -1488 1489 0
-53 -1489 1490 0
-54 -1490 1491 0
-55 -1491 0
48 1492 0
-1492 1493 0
49 -1492 1494 0
-1494 1495 0
50 -1494 1496 0
-1496 1497 0
51 -1496 1498 0
-1498 1499 0
52 -1498 1500 0
-1500 1501 0
53 -1500 0
49 1493 0
-1493 1502 0
50 -1493 1495 0
-1495 1503 0
51 -1495 1497 0
-1497 1504 0
52 -1497 1499 0
-1499 1505 0
53 -1499 1501 0
-1501 1506 0
54 -1501 0
50 1502 0
51 -1502 1503 0
52 -1503 1504 0
53 -1504 1505 0
54 -1505 1506 0
55 -1506 0
-49 1507 0
-1507 1508 0
-50 -1507 1509 0
-1509 1510 0
-51 -1509 1511 0
-1511 1512 0
-52 -1511 1513 0
-1513 1514 0
-53 -1513 1515 0
-1515 1516 0
-54 -1515 0
-50 1508 0
-1508 1517 0
-51 -1508 1510 0
-1510 1518 0
-52 -1510 1512 0
-1512 1519 0
-53 -1512 1514 0
-1514 1520 0
-54 -1514 1516 0
-1516 1521 0
-55 -1516 0
-51 1517 0
-52 -1517 1518 0
-53 -1518 1519 0
-54 -1519 1520 0
-55 -1520 1521 0
-56 -1521 0
49 1522 0
-1522 1523 0
50 -1522 1524 0
-1524 1525 0
51 -1524 1526 0
-1526 1527 0
52 -1526 1528 0
-1528 1529 0
53 -1528 1530 0
-1530 1531 0
54 -1530 0
50 1523 0
-1523 1532 0
51 -1523 1525 0
-1525 1533 0
52 -1525 1527 0
-1527 1534 0
53 -1527 1529 0
-1529 1535 0
54 -1529 1531 0
-1531 1536 0
55 -1531 0
51 1532 0
52 -1532 1533 0
53 -1533 1534 0
54 -1534 1535 0
55 -1535 1536 0
56 -1536 0
-50 1537 0
-1537 1538 0
-51 -1537 1539 0
-1539 1540 0
-52 -1539 1541 0
-1541 1542 0
-53 -1541 1543 0
-1543 1544 0
-54 -1543 1545 0
-1545 1546 0
-55 -1545 0
-51 1538 0
-1538 1547 0
-52 -1538 1540 0
-1540 1548 0
-53 -1540 1542 0
-1542 1549 0
-54 -1542 1544 0
-1544 1550 0
-55 -1544 1546 0
-1546 1551 0
-56 -1546 0
-52 1547 0
-53 -1547 1548 0
-54 -1548 1549 0
-55 -1549 1550 0
-56 -1550 1551 0
-57 -1551 0
50 1552 0
-1552 1553 0
51 -1552 1554 0
-1554 1555 0
52 -1554 1556 0
-1556 1557 0
53 -1556 1558 0
-1558 1559 0
54 -1558 1560 0
-1560 1561 0
55 -1560 0
51 1553 0
-1553 1562 0
52 -1553 1555 0
-1555 1563 0
53 -1555 1557 0
-1557 1564 0
54 -1557 1559 0
-1559 1565 0
55 -1559 1561 0
-1561 1566 0
56 -1561 0
52 1562 0
53 -1562 1563 0
54 -1563 1564 0
55 -1564 1565 0
56 -1565 1566 0
57 -1566 0
-51 1567 0
-1567 1568 0
-52 -1567 1569 0
-1569 1570 0
-53 -1569 1571 0
-1571 1572 0
-54 -1571 1573 0
-1573 1574 0
-55 -1573 1575 0
-1575 1576 0
-56 -1575 0
-52 1568 0
-1568 1577 0
-53 -1568 1570 0
-1570 1578 0
-54 -1570 1572 0
-1572 1579 0
-55 -1572 1574 0
-1574 1580 0
-56 -1574 1576 0
-1576 1581 0
-57 -1576 0
-53 1577 0
-54 -1577 1578 0
-55 -1578 1579 0
-56 -1579 1580 0
-57 -1580 1581 0
-58 -1581 0
51 1582 0
-1582 1583 0
52 -1582 1584 0
-1584 1585 0
53 -1584 1586 0
-1586 1587 0
54 -1586 1588 0
-1588 1589 0
55 -1588 1590 0
-1590 1591 0
56 -1590 0
52 1583 0
-1583 1592 0
53 -1583 1585 0
-1585 1593 0
54 -1585 1587 0
-1587 1594 0
55 -1587 1589 0
-1589 1595 0
56 -1589 1591 0
-1591 1596 0
57 -1591 0
53 1592 0
54 -1592 1593 0
55 -1593 1594 0
56 -1594 1595 0
57 -1595 1596 0
58 -1596 0
-52 1597 0
-1597 1598 0
-53 -1597 1599 0
-1599 1600 0
-54 -1599 1601 0
-1601 1602 0
-55 -1601 1603 0
-1603 1604 0
-56 -1603 1605 0
-1605 1606 0
-57 -1605 0
-53 1598 0
-1598 1607 0
-54 -1598 1600 0
-1600 1608 0
-55 -1600 1602 0
-1602 1609 0
-56 -1602 1604 0
-1604 1610 0
-57 -1604 1606 0
-1606 1611 0
-58 -1606 0
-54 1607 0
-55 -1607 1608 0
-56 -1608 1609 0
-57 -1609 1610 0
-58 -1610 1611 0
-59 -1611 0
52 1612 0
-1612 1613 0
53 -1612 1614 0
-1614 1615 0
54 -1614 1616 0
-1616 1617 0
55 -1616 1618 0
-1618 1619 0
56 -1618 1620 0
-1620 1621 0
57 -1620 0
53 1613 0
-1613 1622 0
54 -1613 1615 0
-1615 1623 0
55 -1615 1617 0
-1617 1624 0
56 -1617 1619 0
-1619 1625 0
57 -1619 1621 0
-1621 1626 0
58 -1621 0
54 1622 0
55 -1622 1623 0
56 -1623 1624 0
57 -1624 1625 0
58 -1625 1626 0
59 -1626 0
-53 1627 0
-1627 1628 0
-54 -1627 1629 0
-1629 1630 0
-55 -1629 1631 0
-1631 1632 0
-56 -1631 1633 0
-1633 1634 0
-57 -1633 1635 0
-1635 1636 0
-58 -1635 0
-54 1628 0
-1628 1637 0
-55 -1628 1630 0
-1630 1638 0
-56 -1630 1632 0
-1632 1639 0
-57 -1632 1634 0
-1634 1640 0
-58 -1634 1636 0
-1636 1641 0
-59 -1636 0
-55 1637 0
-56 -1637 1638 0
-57 -1638 1639 0
-58 -1639 1640 0
-59 -1640 1641 0
-60 -1641 0
53 1642 0
-1642 1643 0
54 -1642 1644 0
-1644 1645 0
55 -1644 1646 0
-1646 1647 0
56 -1646 1648 0
-1648 1649 0
57 -1648 1650 0
-1650 1651 0
58 -1650 0
54 1643 0
-1643 1652 0
55 -1643 1645 0
-1645 1653 0
56 -1645 1647 0
-1647 1654 0
57 -1647 1649 0
-1649 1655 0
58 -1649 1651 0
-1651 1656 0
59 -1651 0
55 1652 0
56 -1652 1653 0
57 -1653 1654 0
58 -1654 1655 0
59 -1655 1656 0
60 -1656 0
-54 1657 0
-1657 1658 0
-55 -1657 1659 0
-1659 1660 0
-56 -1659 1661 0
-1661 1662 0
-57 -1661 1663 0
-1663 1664 0
-58 -1663 1665 0
-1665 1666 0
-59 -1665 0
-55 1658 0
-1658 1667 0
-56 -1658 1660 0
-1660 1668 0
-57 -1660 1662 0
-1662 1669 0
-58 -1662 1664 0
-1664 1670 0
-59 -1664 1666 0
-1666 1671 0
-60 -1666 0
-56 1667 0
-57 -1667 1668 0
-58 -1668 1669 0
-59 -1669 1670 0
-60 -1670 1671 0
-61 -1671 0
54 1672 0
-1672 1673 0
55 -1672 1674 0
-1674 1675 0
56 -1674 1676 0
-1676 1677 0
57 -1676 1678 0
-1678 1679 0
58 -1678 1680 0
-1680 1681 0
59 -1680 0
55 1673 0
-1673 1682 0
56 -1673 1675 0
-1675 1683 0
57 -1675 1677 0
-1677 1684 0
58 -1677 1679 0
-1679 1685 0
59 -1679 1681 0
-1681 1686 0
60 -1681 0
56 1682 0
57 -1682 1683 0
58 -1683 1684 0
59 -1684 1685 0
60 -1685 1686 0
61 -1686 0
-55 1687 0
-1687 1688 0
-56 -1687 1689 0
-1689 1690 0
-57 -1689 1691 0
-1691 1692 0
-58 -1691 1693 0
-1693 1694 0
-59 -1693 1695 0
-1695 1696 0
-60 -1695 0
-56 1688 0
-1688 1697 0
-57 -1688 1690 0
-1690 1698 0
-58 -1690 1692 0
-1692 1699 0
-59 -1692 1694 0
-1694 1700 0
-60 -1694 1696 0
-1696 1701 0
-61 -1696 0
-57 1697 0
-58 -1697 1698 0
-59 -1698 1699 0
-60 -1699 1700 0
-61 -1700 1701 0
-62 -1701 0
55 1702 0
-1702 1703 0
56 -1702 1704 0
-1704 1705 0
57 -1704 1706 0
-1706 1707 0
58 -1706 1708 0
-1708 1709 0
59 -1708 1710 0
-1710 1711 0
60 -1710 0
56 1703 0
-1703 1712 0
57 -1703 1705 0
-1705 1713 0
58 -1705 1707 0
-1707 1714 0
59 -1707 1709 0
-1709 1715 0
60 -1709 1711 0
-1711 1716 0
61 -1711 0
57 1712 0
58 -1712 1713 0
59 -1713 1714 0
60 -1714 1715 0
61 -1715 1716 0
62 -1716 0
-56 1717 0
-1717 1718 0
-57 -1717 1719 0
-1719 1720 0
-58 -1719 1721 0
-1721 1722 0
-59 -1721 1723 0
-1723 1724 0
-60 -1723 1725 0
-1725 1726 0
-61 -1725 0
-57 1718 0
-1718 1727 0
-58 -1718 1720 0
-1720 1728 0
-59 -1720 1722 0
-1722 1729 0
-60 -1722 1724 0
-1724 1730 0
-61 -1724 1726 0
-1726 1731 0
-62 -1726 0
-58 1727 0
-59 -1727 1728 0
-60 -1728 1729 0
-61 -1729 1730 0
-62 -1730 1731 0
-63 -1731 0
56 1732 0
-1732 1733 0
57 -1732 1734 0
-1734 1735 0
58 -1734 1736 0
-1736 1737 0
59 -1736 1738 0
-1738 1739 0
60 -1738 1740 0
-1740 1741 0
61 -1740 0
57 1733 0
-1733 1742 0
58 -1733 1735 0
-1735 1743 0
59 -1735 1737 0
-1737 1744 0
60 -1737 1739 0
-1739 1745 0
61 -1739 1741 0
-1741 1746 0
62 -1741 0
58 1742 0
59 -1742 1743 0
60 -1743 1744 0
61 -1744 1745 0
62 -1745 1746 0
63 -1746 0
-57 1747 0
-1747 1748 0
-58 -1747 1749 0
-1749 1750 0
-59 -1749 1751 0
-1751 1752 0
-60 -1751 1753 0
-1753 1754 0
-61 -1753 1755 0
-1755 1756 0
-62 -1755 0
-58 1748 0
-1748 1757 0
-59 -1748 1750 0
-1750 1758 0
-60 -1750 1752 0
-1752 1759 0
-61 -1752 1754 0
-1754 1760 0
-62 -1754 1756 0
-1756 1761 0
-63 -1756 0
-59 1757 0
-60 -1757 1758 0
-61 -1758 1759 0
-62 -1759 1760 0
-63 -1760 1761 0
-64 -1761 0
57 1762 0
-1762 1763 0
58 -1762 1764 0
-1764 1765 0
59 -1764 1766 0
-1766 1767 0
60 -1766 1768 0
-1768 1769 0
61 -1768 1770 0
-1770 1771 0
62 -1770 0
58 1763 0
-1763 1772 0
59 -1763 1765 0
-1765 1773 0
60 -1765 1767 0
-1767 1774 0
61 -1767 1769 0
-1769 1775 0
62 -1769 1771 0
-1771 1776 0
63 -1771 0
59 1772 0
60 -1772 1773 0
61 -1773 1774 0
62 -1774 1775 0
63 -1775 1776 0
64 -1776 0
-58 1777 0
-1777 1778 0
-59 -1777 1779 0
-1779 1780 0
-60 -1779 1781 0
-1781 1782 0
-61 -1781 1783 0
-1783 1784 0
-62 -1783 1785 0
-1785 1786 0
-63 -1785 0
-59 1778 0
-1778 1787 0
-60 -1778 1780 0
-1780 1788 0
-61 -1780 1782 0
-1782 1789 0
-62 -1782 1784 0
-1784 1790 0
-63 -1784 1786 0
-1786 1791 0
-64 -1786 0
-60 1787 0
-61 -1787 1788 0
-62 -1788 1789 0
-63 -1789 1790 0
-64 -1790 1791 0
-65 -1791 0
58 1792 0
-1792 1793 0
59 -1792 1794 0
-1794 1795 0
60 -1794 1796 0
-1796 1797 0
61 -1796 1798 0
-1798 1799 0
62 -1798 1800 0
-1800 1801 0
63 -1800 0
59 1793 0
-1793 1802 0
60 -1793 1795 0
-1795 1803 0
61 -1795 1797 0
-1797 1804 0
62 -1797 1799 0
-1799 1805 0
63 -1799 1801 0
-1801 1806 0
64 -1801 0
60 1802 0
61 -1802 1803 0
62 -1803 1804 0
63 -1804 1805 0
64 -1805 1806 0
65 -1806 0
-59 1807 0
-1807 1808 0
-60 -1807 1809 0
-1809 1810 0
-61 -1809 1811 0
-1811 1812 0
-62 -1811 1813 0
-1813 1814 0
-63 -1813 1815 0
-1815 1816 0
-64 -1815 0
-60 1808 0
-1808 1817 0
-61 -1808 1810 0
-1810 1818 0
-62 -1810 1812 0
-1812 1819 0
-63 -1812 1814 0
-1814 1820 0
-64 -1814 1816 0
-1816 1821 0
-65 -1816 0
-61 1817 0
-62 -1817 1818 0
-63 -1818 1819 0
-64 -1819 1820 0
-65 -1820 1821 0
-66 -1821 0
59 1822 0
-1822 1823 0
60 -1822 1824 0
-1824 1825 0
61 -1824 1826 0
-1826 1827 0
62 -1826 1828 0
-1828 1829 0
63 -1828 1830 0
-1830 1831 0
64 -1830 0
60 1823 0
-1823 1832 0
61 -1823 1825 0
-1825 1833 0
62 -1825 1827 0
-1827 1834 0
63 -1827 1829 0
-1829 1835 0
64 -1829 1831 0
-1831 1836 0
65 -1831 0
61 1832 0
62 -1832 1833 0
63 -1833 1834 0
64 -1834 1835 0
65 -1835 1836 0
66 -1836 0
-1 1837 0
-1837 1838 0
-3 -1837 1839 0
-1839 1840 0
-5 -1839 1841 0
-1841 1842 0
-7 -1841 1843 0
-1843 1844 0
-9 -1843 1845 0
-1845 1846 0
-11 -1845 0
-3 1838 0
-1838 1847 0
-5 -1838 1840 0
-1840 1848 0
-7 -1840 1842 0
-1842 1849 0
-9 -1842 1844 0
-1844 1850 0
-11 -1844 1846 0
-1846 1851 0
-13 -1846 0
-5 1847 0
-7 -1847 1848 0
-9 -1848 1849 0
-11 -1849 1850 0
-13 -1850 1851 0
-15 -1851 0
1 1852 0
-1852 1853 0
3 -1852 1854 0
-1854 1855 0
5 -1854 1856 0
-1856 1857 0
7 -1856 1858 0
-1858 1859 0
9 -1858 1860 0
-1860 1861 0
11 -1860 0
3 1853 0
-1853 1862 0
5 -1853 1855 0
-1855 1863 0
7 -1855 1857 0
-1857 1864 0
9 -1857 1859 0
-1859 1865 0
11 -1859 1861 0
-1861 1866 0
13 -1861 0
5 1862 0
7 -1862 1863 0
9 -1863 1864 0
11 -1864 1865 0
13 -1865 1866 0
15 -1866 0
-2 1867 0
-1867 1868 0
-4 -1867 1869 0
-1869 1870 0
-6 -1869 1871 0
-1871 1872 0
-8 -1871 1873 0
-1873 1874 0
-10 -1873 1875 0
-1875 1876 0
-12 -1875 0
-4 1868 0
-1868 1877 0
-6 -1868 1870 0
-1870 1878 0
-8 -1870 1872 0
-1872 1879 0
-10 -1872 1874 0
-1874 1880 0
-12 -1874 1876 0
-1876 1881 0
-14 -1876 0
-6 1877 0
-8 -1877 1878 0
-10 -1878 1879 0
-12 -1879 1880 0
-14 -1880 1881 0
-16 -1881 0
2 1882 0
-1882 1883 0
4 -1882 1884 0
-1884 1885 0
6 -1884 1886 0
-1886 1887 0
8 -1886 1888 0
-1888 1889 0
10 -1888 1890 0
-1890 1891 0
12 -1890 0
4 1883 0
-1883 1892 0
6 -1883 1885 0
-1885 1893 0
8 -1885 1887 0
-1887 1894 0
10 -1887 1889 0
-1889 1895 0
12 -1889 1891 0
-1891 1896 0
14 -1891 0
6 1892 0
8 -1892 1893 0
10 -1893 1894 0
12 -1894 1895 0
14 -1895 1896 0
16 -1896 0
-3 1897 0
-1897 1898 0
-5 -1897 1899 0
-1899 1900 0
-7 -1899 1901 0
-1901 1902 0
-9 -1901 1903 0
-1903 1904 0
-11 -1903 1905 0
-1905 1906 0
-13 -1905 0
-5 1898 0
-1898 1907 0
-7 -1898 1900 0
-1900 1908 0
-9 -1900 1902 0
-1902 1909 0
-11 -1902 1904 0
-1904 1910 0
-13 -1904 1906 0
-1906 1911 0
-15 -1906 0
-7 1907 0
-9 -1907 1908 0
-11 -1908 1909 0
-13 -1909 1910 0
-15 -1910 1911 0
-17 -1911 0
3 1912 0
-1912 1913 0
5 -1912 1914 0
-1914 1915 0
7 -1914 1916 0
-1916 1917 0
9 -1916 1918 0
-1918 1919 0
11 -1918 1920 0
-1920 1921 0
13 -1920 0
5 1913 0
-1913 1922 0
7 -1913 1915 0
-1915 1923 0
9 -1915 1917 0
-1917 1924 0
11 -1917 1919 0
-1919 1925 0
13 -1919 1921 0
-1921 1926 0
15 -1921 0
7 1922 0
9 -1922 1923 0
11 -1923 1924 0
13 -1924 1925 0
15 -1925 1926 0
17 -1926 0
-4 1927 0
-1927 1928 0
-6 -1927 1929 0
-1929 1930 0
-8 -1929 1931 0
-1931 1932 0
-10 -1931 1933 0
-1933 1934 0
-12 -1933 1935 0
-1935 1936 0
-14 -1935 0
-6 1928 0
-1928 1937 0
-8 -1928 1930 0
-1930 1938 0
-10 -1930 1932 0
-1932 1939 0
-12 -1932 1934 0
-1934 1940 0
-14 -1934 1936 0
-1936 1941 0
-16 -1936 0
-8 1937 0
-10 -1937 1938 0
-12 -1938 1939 0
-14 -1939 1940 0
-16 -1940 1941 0
-18 -1941 0
4 1942 0
-1942 1943 0
6 -1942 1944 0
-1944 1945 0
8 -1944 1946 0
-1946 1947 0
10 -1946 1948 0
-1948 1949 0
12 -1948 1950 0
-1950 1951 0
14 -1950 0
6 1943 0
-1943 1952 0
8 -1943 1945 0
-1945 1953 0
10 -1945 1947 0
-1947 1954 0
12 -1947 1949 0
-1949 1955 0
14 -1949 1951 0
-1951 1956 0
16 -1951 0
8 1952 0
10 -1952 1953 0
12 -1953 1954 0
14 -1954 1955 0
16 -1955 1956 0
18 -1956 0
-5 1957 0
-1957 1958 0
-7 -1957 1959 0
-1959 1960 0
-9 -1959 1961 0
-1961 1962 0
-11 -1961 1963 0
-1963 1964 0
-13 -1963 1965 0
-1965 1966 0
-15 -1965 0
-7 1958 0
-1958 1967 0
-9 -1958 1960 0
-1960 1968 0
-11 -1960 1962 0
-1962 1969 0
-13 -1962 1964 0
-1964 1970 0
-15 -1964 1966 0
-1966 1971 0
-17 -1966 0
-9 1967 0
-11 -1967 1968 0
-13 -1968 1969 0
-15 -1969 1970 0
-17 -1970 1971 0
-19 -1971 0
5 1972 0
-1972 1973 0
7 -1972 1974 0
-1974 1975 0
9 -1974 1976 0
-1976 1977 0
11 -1976 1978 0
-1978 1979 0
13 -1978 1980 0
-1980 1981 0
15 -1980 0
7 1973 0
-1973 1982 0
9 -1973 1975 0
-1975 1983 0
11 -1975 1977 0
-1977 1984 0
13 -1977 1979 0
-1979 1985 0
15 -1979 1981 0
-1981 1986 0
17 -1981 0
9 1982 0
11 -1982 1983 0
13 -1983 1984 0
15 -1984 1985 0
17 -1985 1986 0
19 -1986 0
-6 1987 0
-1987 1988 0
-8 -1987 1989 0
-1989 1990 0
-10 -1989 1991 0
-1991 1992 0
-12 -1991 1993 0
-1993 1994 0
-14 -1993 1995 0
-1995 1996 0
-16 -1995 0
-8 1988 0
-1988 1997 0
-10 -1988 1990 0
-1990 1998 0
-12 -1990 1992 0
-1992 1999 0
-14 -1992 1994 0
-1994 2000 0
-16 -1994 1996 0
-1996 2001 0
-18 -1996 0
-10 1997 0
-12 -1997 1998 0
-14 -1998 1999 0
-16 -1999 2000 0
-18 -2000 2001 0
-20 -2001 0
6 2002 0
-2002 2003 0
8 -2002 2004 0
-2004 2005 0
10 -2004 2006 0
-2006 2007 0
12 -2006 2008 0
-2008 2009 0
14 -2008 2010 0
-2010 2011 0
16 -2010 0
8 2003 0
-2003 2012 0
10 -2003 2005 0
-2005 2013 0
12 -2005 2007 0
-2007 2014 0
14 -2007 2009 0
-2009 2015 0
16 -2009 2011 0
-2011 2016 0
18 -2011 0
10 2012 0
12 -2012 2013 0
14 -2013 2014 0
16 -2014 2015 0
18 -2015 2016 0
20 -2016 0
-7 2017 0
-2017 2018 0
-9 -2017 2019 0
-2019 2020 0
-11 -2019 2021 0
-2021 2022 0
-13 -2021 2023 0
-2023 2024 0
-15 -2023 2025 0
-2025 2026 0
-17 -2025 0
-9 2018 0
-2018 2027 0
-11 -2018 2020 0
-2020 2028 0
-13 -2020 2022 0
-2022 2029 0
-15 -2022 2024 0
-2024 2030 0
-17 -2024 2026 0
-2026 2031 0
-19 -2026 0
-11 2027 0
-13 -2027 2028 0
-15 -2028 2029 0
-17 -2029 2030 0
-19 -2030 2031 0
-21 -2031 0
7 2032 0
-2032 2033 0
9 -2032 2034 0
-2034 2035 0
11 -2034 2036 0
-2036 2037 0
13 -2036 2038 0
-2038 2039 0
15 -2038 2040 0
-2040 2041 0
17 -2040 0
9 2033 0
-2033 2042 0
11 -2033 2035 0
-2035 2043 0
13 -2035 2037 0
-2037 2044 0
15 -2037 2039 0
-2039 2045 0
17 -2039 2041 0
-2041 2046 0
19 -2041 0
11 2042 0
13 -2042 2043 0
15 -2043 2044 0
17 -2044 2045 0
19 -2045 2046 0
21 -2046 0
-8 2047 0
-2047 2048 0
-10 -2047 2049 0
-2049 2050 0
-12 -2049 2051 0
-2051 2052 0
-14 -2051 2053 0
-2053 2054 0
-16 -2053 2055 0
-2055 2056 0
-18 -2055 0
-10 2048 0
-2048 2057 0
-12 -2048 2050 0
-2050 2058 0
-14 -2050 2052 0
-2052 2059 0
-16 -2052 2054 0
-2054 2060 0
-18 -2054 2056 0
-2056 2061 0
-20 -2056 0
-12 2057 0
-14 -2057 2058 0
-16 -2058 2059 0
-18 -2059 2060 0
-20 -2060 2061 0
-22 -2061 0
8 2062 0
-2062 2063 0
10 -2062 2064 0
-2064 2065 0
12 -2064 2066 0
-2066 2067 0
14 -2066 2068 0
-2068 2069 0
16 -2068 2070 0
-2070 2071 0
18 -2070 0
10 2063 0
-2063 2072 0
12 -2063 2065 0
-2065 2073 0
14 -2065 2067 0
-2067 2074 0
16 -2067 2069 0
-2069 2075 0
18 -2069 2071 0
-2071 2076 0
20 -2071 0
12 2072 0
14 -2072 2073 0
16 -2073 2074 0
18 -2074 2075 0
20 -2075 2076 0
22 -2076 0
-9 2077 0
-2077 2078 0
-11 -2077 2079 0
-2079 2080 0
-13 -2079 2081 0
-2081 2082 0
-15 -2081 2083 0
-2083 2084 0
-17 -2083 2085 0
-2085 2086 0
-19 -2085 0
-11 2078 0
-2078 2087 0
-13 -2078 2080 0
-2080 2088 0
-15 -2080 2082 0
-2082 2089 0
-17 -2082 2084 0
-2084 2090 0
-19 -2084 2086 0
-2086 2091 0
-21 -2086 0
-13 2087 0
-15 -2087 2088 0
-17 -2088 2089 0
-19 -2089 2090 0
-21 -2090 2091 0
-23 -2091 0
9 2092 0
-2092 2093 0
11 -2092 2094 0
-2094 2095 0
13 -2094 2096 0
-2096 2097 0
15 -2096 2098 0
-2098 2099 0
17 -2098 2100 0
-2100 2101 0
19 -2100 0
11 2093 0
-2093 2102 0
13 -2093 2095 0
-2095 2103 0
15 -2095 2097 0
-2097 2104 0
17 -2097 2099 0
-2099 2105 0
19 -2099 2101 0
-2101 2106 0
21 -2101 0
13 2102 0
15 -2102 2103 0
17 -2103 2104 0
19 -2104 2105 0
21 -2105 2106 0
23 -2106 0
-10 2107 0
-2107 2108 0
-12 -2107 2109 0
-2109 2110 0
-14 -2109 2111 0
-2111 2112 0
-16 -2111 2113 0
-2113 2114 0
-18 -2113 2115 0
-2115 2116 0
-20 -2115 0
-12 2108 0
-2108 2117 0
-14 -2108 2110 0
-2110 2118 0
-16 -2110 2112 0
-2112 2119 0
-18 -2112 2114 0
-2114 2120 0
-20 -2114 2116 0
-2116 2121 0
-22 -2116 0
-14 2117 0
-16 -2117 2118 0
-18 -2118 2119 0
-20 -2119 2120 0
-22 -2120 2121 0
-24 -2121 0
10 2122 0
-2122 2123 0
12 -2122 2124 0
-2124 2125 0
14 -2124 2126 0
-2126 2127 0
16 -2126 2128 0
-2128 2129 0
18 -2128 2130 0
-2130 2131 0
20 -2130 0
12 2123 0
-2123 2132 0
14 -2123 2125 0
-2125 2133 0
16 -2125 2127 0
-2127 2134 0
18 -2127 2129 0
-2129 2135 0
20 -2129 2131 0
-2131 2136 0
22 -2131 0
14 2132 0
16 -2132 2133 0
18 -2133 2134 0
20 -2134 2135 0
22 -2135 2136 0
24 -2136 0
-11 2137 0
-2137 2138 0
-13 -2137 2139 0
-2139 2140 0
-15 -2139 2141 0
-2141 2142 0
-17 -2141 2143 0
-2143 2144 0
-19 -2143 2145 0
-2145 2146 0
-21 -2145 0
-13 2138 0
-2138 2147 0
-15 -2138 2140 0
-2140 2148 0
-17 -2140 2142 0
-2142 2149 0
-19 -2142 2144 0
-2144 2150 0
-21 -2144 2146 0
-2146 2151 0
-23 -2146 0
-15 2147 0
-17 -2147 2148 0
-19 -2148 2149 0
-21 -2149 2150 0
-23 -2150 2151 0
-25 -2151 0
11 2152 0
-2152 2153 0
13 -2152 2154 0
-2154 2155 0
15 -2154 2156 0
-2156 2157 0
17 -2156 2158 0
-2158 2159 0
19 -2158 2160 0
-2160 2161 0
21 -2160 0
13 2153 0
-2153 2162 0
15 -2153 2155 0
-2155 2163 0
17 -2155 2157 0
-2157 2164 0
19 -2157 2159 0
-2159 2165 0
21 -2159 2161 0
-2161 2166 0
23 -2161 0
15 2162 0
17 -2162 2163 0
19 -2163 2164 0
21 -2164 2165 0
23 -2165 2166 0
25 -2166 0
-12 2167 0
-2167 2168 0
-14 -2167 2169 0
-2169 2170 0
-16 -2169 2171 0
-2171 2172 0
-18 -2171 2173 0
-2173 2174 0
-20 -2173 2175 0
-2175 2176 0
-22 -2175 0
-14 2168 0
-2168 2177 0
-16 -2168 2170 0
-2170 2178 0
-18 -2170 2172 0
-2172 2179 0
-20 -2172 2174 0
-2174 2180 0
-22 -2174 2176 0
-2176 2181 0
-24 -2176 0
-16 2177 0
-18 -2177 2178 0
-20 -2178 2179 0
-22 -2179 2180 0
-24 -2180 2181 0
-26 -2181 0
12 2182 0
-2182 2183 0
14 -2182 2184 0
-2184 2185 0
16 -2184 2186 0
-2186 2187 0
18 -2186 2188 0
-2188 2189 0
20 -2188 2190 0
-2190 2191 0
22 -2190 0
14 2183 0
-2183 2192 0
16 -2183 2185 0
-2185 2193 0
18 -2185 2187 0
-2187 2194 0
20 -2187 2189 0
-2189 2195 0
22 -2189 2191 0
-2191 2196 0
24 -2191 0
16 2192 0
18 -2192 2193 0
20 -2193 2194 0
22 -2194 2195 0
24 -2195 2196 0
26 -2196 0
-13 2197 0
-2197 2198 0
-15 -2197 2199 0
-2199 2200 0
-17 -2199 2201 0
-2201 2202 0
-19 -2201 2203 0
-2203 2204 0
-21 -2203 2205 0
-2205 2206 0
-23 -2205 0
-15 2198 0
-2198 2207 0
-17 -2198 2200 0
-2200 2208 0
-19 -2200 2202 0
-2202 2209 0
-21 -2202 2204 0
-2204 2210 0
-23 -2204 2206 0
-2206 2211 0
-25 -2206 0
-17 2207 0
-19 -2207 2208 0
-21 -2208 2209 0
-23 -2209 2210 0
-25 -2210 2211 0
-27 -2211 0
13 2212 0
-2212 2213 0
15 -2212 2214 0
-2214 2215 0
17 -2214 2216 0
-2216 2217 0
19 -2216 2218 0
-2218 2219 0
21 -2218 2220 0
-2220 2221 0
23 -2220 0
15 2213 0
-2213 2222 0
17 -2213 2215 0
-2215 2223 0
19 -2215 2217 0
-2217 2224 0
21 -2217 2219 0
-2219 2225 0
23 -2219 2221 0
-2221 2226 0
25 -2221 0
17 2222 0
19 -2222 2223 0
21 -2223 2224 0
23 -2224 2225 0
25 -2225 2226 0
27 -2226 0
-14 2227 0
-2227 2228 0
-16 -2227 2229 0
-2229 2230 0
-18 -2229 2231 0
-2231 2232 0
-20 -2231 2233 0
-2233 2234 0
-22 -2233 2235 0
-2235 2236 0
-24 -2235 0
-16 2228 0
-2228 2237 0
-18 -2228 2230 0
-2230 2238 0
-20 -2230 2232 0
-2232 2239 0
-22 -2232 2234 0
-2234 2240 0
-24 -2234 2236 0
-2236 2241 0
-26 -2236 0
-18 2237 0
-20 -2237 2238 0
-22 -2238 2239 0
-24 -2239 2240 0
-26 -2240 2241 0
-28 -2241 0
14 2242 0
-2242 2243 0
16 -2242 2244 0
-2244 2245 0
18 -2244 2246 0
-2246 2247 0
20 -2246 2248 0
-2248 2249 0
22 -2248 2250 0
-2250 2251 0
24 -2250 0
16 2243 0
-2243 2252 0
18 -2243 2245 0
-2245 2253 0
20 -2245 2247 0
-2247 2254 0
22 -2247 2249 0
-2249 2255 0
24 -2249 2251 0
-2251 2256 0
26 -2251 0
18 2252 0
20 -2252 2253 0
22 -2253 2254 0
24 -2254 2255 0
26 -2255 2256 0
28 -2256 0
-15 2257 0
-2257 2258 0
-17 -2257 2259 0
-2259 2260 0
-19 -2259 2261 0
-2261 2262 0
-21 -2261 2263 0
-2263 2264 0
-23 -2263 2265 0
-2265 2266 0
-25 -2265 0
-17 2258 0
-2258 2267 0
-19 -2258 2260 0
-2260 2268 0
-21 -2260 2262 0
-2262 2269 0
-23 -2262 2264 0
-2264 2270 0
-25 -2264 2266 0
-2266 2271 0
-27 -2266 0
-19 2267 0
-21 -2267 2268 0
-23 -2268 2269 0
-25 -2269 2270 0
-27 -2270 2271 0
-29 -2271 0
15 2272 0
-2272 2273 0
17 -2272 2274 0
-2274 2275 0
19 -2274 2276 0
-2276 2277 0
21 -2276 2278 0
-2278 2279 0
23 -2278 2280 0
-2280 2281 0
25 -2280 0
17 2273 0
-2273 2282 0
19 -2273 2275 0
-2275 2283 0
21 -2275 2277 0
-2277 2284 0
23 -2277 2279 0
-2279 2285 0
25 -2279 2281 0
-2281 2286 0
27 -2281 0
19 2282 0
21 -2282 2283 0
23 -2283 2284 0
25 -2284 2285 0
27 -2285 2286 0
29 -2286 0
-16 2287 0
-2287 2288 0
-18 -2287 2289 0
-2289 2290 0
-20 -2289 2291 0
-2291 2292 0
-22 -2291 2293 0
-2293 2294 0
-24 -2293 2295 0
-2295 2296 0
-26 -2295 0
-18 2288 0
-2288 2297 0
-20 -2288 2290 0
-2290 2298 0
-22 -2290 2292 0
-2292 2299 0
-24 -2292 2294 0
-2294 2300 0
-26 -2294 2296 0
-2296 2301 0
-28 -2296 0
-20 2297 0
-22 -2297 2298 0
-24 -2298 2299 0
-26 -2299 2300 0
-28 -2300 2301 0
-30 -2301 0
16 2302 0
-2302 2303 0
18 -2302 2304 0
-2304 2305 0
20 -2304 2306 0
-2306 2307 0
22 -2306 2308 0
-2308 2309 0
24 -2308 2310 0
-2310 2311 0
26 -2310 0
18 2303 0
-2303 2312 0
20 -2303 2305 0
-2305 2313 0
22 -2305 2307 0
-2307 2314 0
24 -2307 2309 0
-2309 2315 0
26 -2309 2311 0
-2311 2316 0
28 -2311 0
20 2312 0
22 -2312 2313 0
24 -2313 2314 0
26 -2314 2315 0
28 -2315 2316 0
30 -2316 0
-17 2317 0
-2317 2318 0
-19 -2317 2319 0
-2319 2320 0
-21 -2319 2321 0
-2321 2322 0
-23 -2321 2323 0
-2323 2324 0
-25 -2323 2325 0
-2325 2326 0
-27 -2325 0
-19 2318 0
-2318 2327 0
-21 -2318 2320 0
-2320 2328 0
-23 -2320 2322 0
-2322 2329 0
-25 -2322 2324 0
-2324 2330 0
-27 -2324 2326 0
-2326 2331 0
-29 -2326 0
-21 2327 0
-23 -2327 2328 0
-25 -2328 2329 0
-27 -2329 2330 0
-29 -2330 2331 0
-31 -2331 0
17 2332 0
-2332 2333 0
19 -2332 2334 0
-2334 2335 0
21 -2334 2336 0
-2336 2337 0
23 -2336 2338 0
-2338 2339 0
25 -2338 2340 0
-2340 2341 0
27 -2340 0
19 2333 0
-2333 2342 0
21 -2333 2335 0
-2335 2343 0
23 -2335 2337 0
-2337 2344 0
25 -2337 2339 0
-2339 2345 0
27 -2339 2341 0
-2341 2346 0
29 -2341 0
21 2342 0
23 -2342 2343 0
25 -2343 2344 0
27 -2344 2345 0
29 -2345 2346 0
31 -2346 0
-18 2347 0
-2347 2348 0
-20 -2347 2349 0
-2349 2350 0
-22 -2349 2351 0
-2351 2352 0
-24 -2351 2353 0
-2353 2354 0
-26 -2353 2355 0
-2355 2356 0
-28 -2355 0
-20 2348 0
-2348 2357 0
-22 -2348 2350 0
-2350 2358 0
-24 -2350 2352 0
-2352 2359 0
-26 -2352 2354 0
-2354 2360 0
-28 -2354 2356 0
-2356 2361 0
-30 -2356 0
-22 2357 0
-24 -2357 2358 0
-26 -2358 2359 0
-28 -2359 2360 0
-30 -2360 2361 0
-32 -2361 0
18 2362 0
-2362 2363 0
20 -2362 2364 0
-2364 2365 0
22 -2364 2366 0
-2366 2367 0
24 -2366 2368 0
-2368 2369 0
26 -2368 2370 0
-2370 2371 0
28 -2370 0
20 2363 0
-2363 2372 0
22 -2363 2365 0
-2365 2373 0
24 -2365 2367 0
-2367 2374 0
26 -2367 2369 0
-2369 2375 0
28 -2369 2371 0
-2371 2376 0
30 -2371 0
22 2372 0
24 -2372 2373 0
26 -2373 2374 0
28 -2374 2375 0
30 -2375 2376 0
32 -2376 0
-19 2377 0
-2377 2378 0
-21 -2377 2379 0
-2379 2380 0
-23 -2379 2381 0
-2381 2382 0
-25 -2381 2383 0
-2383 2384 0
-27 -2383 2385 0
-2385 2386 0
-29 -2385 0
-21 2378 0
-2378 2387 0
-23 -2378 2380 0
-2380 2388 0
-25 -2380 2382 0
-2382 2389 0
-27 -2382 2384 0
-2384 2390 0
-29 -2384 2386 0
-2386 2391 0
-31 -2386 0
-23 2387 0
-25 -2387 2388 0
-27 -2388 2389 0
-29 -2389 2390 0
-31 -2390 2391 0
-33 -2391 0
19 2392 0
-2392 2393 0
21 -2392 2394 0
-2394 2395 0
23 -2394 2396 0
-2396 2397 0
25 -2396 2398 0
-2398 2399 0
27 -2398 2400 0
-2400 2401 0
29 -2400 0
21 2393 0
-2393 2402 0
23 -2393 2395 0
-2395 2403 0
25 -2395 2397 0
-2397 2404 0
27 -2397 2399 0
-2399 2405 0
29 -2399 2401 0
-2401 2406 0
31 -2401 0
23 2402 0
25 -2402 2403 0
27 -2403 2404 0
29 -2404 2405 0
31 -2405 2406 0
33 -2406 0
-20 2407 0
-2407 2408 0
-22 -2407 2409 0
-2409 2410 0
-24 -2409 2411 0
-2411 2412 0
-26 -2411 2413 0
-2413 2414 0
-28 -2413 2415 0
-2415 2416 0
-30 -2415 0
-22 2408 0
-2408 2417 0
-24 -2408 2410 0
-2410 2418 0
-26 -2410 2412 0
-2412 2419 0
-28 -2412 2414 0
-2414 2420 0
-30 -2414 2416 0
-2416 2421 0
-32 -2416 0
-24 2417 0
-26 -2417 2418 0
-28 -2418 2419 0
-30 -2419 2420 0
-32 -2420 2421 0
-34 -2421 0
20 2422 0
-2422 2423 0
22 -2422 2424 0
-2424 2425 0
24 -2424 2426 0
-2426 2427 0
26 -2426 2428 0
-2428 2429 0
28 -2428 2430 0
-2430 2431 0
30 -2430 0
22 2423 0
-2423 2432 0
24 -2423 2425 0
-2425 2433 0
26 -2425 2427 0
-2427 2434 0
28 -2427 2429 0
-2429 2435 0
30 -2429 2431 0
-2431 2436 0
32 -2431 0
24 2432 0
26 -2432 2433 0
28 -2433 2434 0
30 -2434 2435 0
32 -2435 2436 0
34 -2436 0
-21 2437 0
-2437 2438 0
-23 -2437 2439 0
-2439 2440 0
-25 -2439 2441 0
-2441 2442 0
-27 -2441 2443 0
-2443 2444 0
-29 -2443 2445 0
-2445 2446 0
-31 -2445 0
-23 2438 0
-2438 2447 0
-25 -2438 2440 0
-2440 2448 0
-27 -2440 2442 0
-2442 2449 0
-29 -2442 2444 0
-2444 2450 0
-31 -2444 2446 0
-2446 2451 0
-33 -2446 0
-25 2447 0
-27 -2447 2448 0
-29 -2448 2449 0
-31 -2449 2450 0
-33 -2450 2451 0
-35 -2451 0
21 2452 0
-2452 2453 0
23 -2452 2454 0
-2454 2455 0
25 -2454 2456 0
-2456 2457 0
27 -2456 2458 0
-2458 2459 0
29 -2458 2460 0
-2460 2461 0
31 -2460 0
23 2453 0
-2453 2462 0
25 -2453 2455 0
-2455 2463 0
27 -2455 2457 0
-2457 2464 0
29 -2457 2459 0
-2459 2465 0
31 -2459 2461 0
-2461 2466 0
33 -2461 0
25 2462 0
27 -2462 2463 0
29 -2463 2464 0
31 -2464 2465 0
33 -2465 2466 0
35 -2466 0
-22 2467 0
-2467 2468 0
-24 -2467 2469 0
-2469 2470 0
-26 -2469 2471 0
-2471 2472 0
-28 -2471 2473 0
-2473 2474 0
-30 -2473 2475 0
-2475 2476 0
-32 -2475 0
-24 2468 0
-2468 2477 0
-26 -2468 2470 0
-2470 2478 0
-28 -2470 2472 0
-2472 2479 0
-30 -2472 2474 0
-2474 2480 0
-32 -2474 2476 0
-2476 2481 0
-34 -2476 0
-26 2477 0
-28 -2477 2478 0
-30 -2478 2479 0
-32 -2479 2480 0
-34 -2480 2481 0
-36 -2481 0
22 2482 0
-2482 2483 0
24 -2482 2484 0
-2484 2485 0
26 -2484 2486 0
-2486 2487 0
28 -2486 2488 0
-2488 2489 0
30 -2488 2490 0
-2490 2491 0
32 -2490 0
24 2483 0
-2483 2492 0
26 -2483 2485 0
-2485 2493 0
28 -2485 2487 0
-2487 2494 0
30 -2487 2489 0
-2489 2495 0
32 -2489 2491 0
-2491 2496 0
34 -2491 0
26 2492 0
28 -2492 2493 0
30 -2493 2494 0
32 -2494 2495 0
34 -2495 2496 0
36 -2496 0
-23 2497 0
-2497 2498 0
-25 -2497 2499 0
-2499 2500 0
-27 -2499 2501 0
-2501 2502 0
-29 -2501 2503 0
-2503 2504 0
-31 -2503 2505 0
-2505 2506 0
-33 -2505 0
-25 2498 0
-2498 2507 0
-27 -2498 2500 0
-2500 2508 0
-29 -2500 2502 0
-2502 2509 0
-31 -2502 2504 0
-2504 2510 0
-33 -2504 2506 0
-2506 2511 0
-35 -2506 0
-27 2507 0
-29 -2507 2508 0
-31 -2508 2509 0
-33 -2509 2510 0
-35 -2510 2511 0
-37 -2511 0
23 2512 0
-2512 2513 0
25 -2512 2514 0
-2514 2515 0
27 -2514 2516 0
-2516 2517 0
29 -2516 2518 0
-2518 2519 0
31 -2518 2520 0
-2520 2521 0
33 -2520 0
25 2513 0
-2513 2522 0
27 -2513 2515 0
-2515 2523 0
29 -2515 2517 0
-2517 2524 0
31 -2517 2519 0
-2519 2525 0
33 -2519 2521 0
-2521 2526 0
35 -2521 0
27 2522 0
29 -2522 2523 0
31 -2523 2524 0
33 -2524 2525 0
35 -2525 2526 0
37 -2526 0
-24 2527 0
-2527 2528 0
-26 -2527 2529 0
-2529 2530 0
-28 -2529 2531 0
-2531 2532 0
-30 -2531 2533 0
-2533 2534 0
-32 -2533 2535 0
-2535 2536 0
-34 -2535 0
-26 2528 0
-2528 2537 0
-28 -2528 2530 0
-2530 2538 0
-30 -2530 2532 0
-2532 2539 0
-32 -2532 2534 0
-2534 2540 0
-34 -2534 2536 0
-2536 2541 0
-36 -2536 0
-28 2537 0
-30 -2537 2538 0
-32 -2538 2539 0
-34 -2539 2540 0
-36 -2540 2541 0
-38 -2541 0
24 2542 0
-2542 2543 0
26 -2542 2544 0
-2544 2545 0
28 -2544 2546 0
-2546 2547 0
30 -2546 2548 0
-2548 2549 0
32 -2548 2550 0
-2550 2551 0
34 -2550 0
26 2543 0
-2543 2552 0
28 -2543 2545 0
-2545 2553 0
30 -2545 2547 0
-2547 2554 0
32 -2547 2549 0
-2549 2555 0
34 -2549 2551 0
-2551 2556 0
36 -2551 0
28 2552 0
30 -2552 2553 0
32 -2553 2554 0
34 -2554 2555 0
36 -2555 2556 0
38 -2556 0
-25 2557 0
-2557 2558 0
-27 -2557 2559 0
-2559 2560 0
-29 -2559 2561 0
-2561 2562 0
-31 -2561 2563 0
-2563 2564 0
-33 -2563 2565 0
-2565 2566 0
-35 -2565 0
-27 2558 0
-2558 2567 0
-29 -2558 2560 0
-2560 2568 0
-31 -2560 2562 0
-2562 2569 0
-33 -2562 2564 0
-2564 2570 0
-35 -2564 2566 0
-2566 2571 0
-37 -2566 0
-29 2567 0
-31 -2567 2568 0
-33 -2568 2569 0
-35 -2569 2570 0
-37 -2570 2571 0
-39 -2571 0
25 2572 0
-2572 2573 0
27 -2572 2574 0
-2574 2575 0
29 -2574 2576 0
-2576 2577 0
31 -2576 2578 0
-2578 2579 0
33 -2578 2580 0
-2580 2581 0
35 -2580 0
27 2573 0
-2573 2582 0
29 -2573 2575 0
-2575 2583 0
31 -2575 2577 0
-2577 2584 0
33 -2577 2579 0
-2579 2585 0
35 -2579 2581 0
-2581 2586 0
37 -2581 0
29 2582 0
31 -2582 2583 0
33 -2583 2584 0
35 -2584 2585 0
37 -2585 2586 0
39 -2586 0
-26 2587 0
-2587 2588 0
-28 -2587 2589 0
-2589 2590 0
-30 -2589 2591 0
-2591 2592 0
-32 -2591 2593 0
-2593 2594 0
-34 -2593 2595 0
-2595 2596 0
-36 -2595 0
-28 2588 0
-2588 2597 0
-30 -2588 2590 0
-2590 2598 0
-32 -2590 2592 0
-2592 2599 0
-34 -2592 2594 0
-2594 2600 0
-36 -2594 2596 0
-2596 2601 0
-38 -2596 0
-30 2597 0
-32 -2597 2598 0
-34 -2598 2599 0
-36 -2599 2600 0
-38 -2600 2601 0
-40 -2601 0
26 2602 0
-2602 2603 0
28 -2602 2604 0
-2604 2605 0
30 -2604 2606 0
-2606 2607 0
32 -2606 2608 0
-2608 2609 0
34 -2608 2610 0
-2610 2611 0
36 -2610 0
28 2603 0
-2603 2612 0
30 -2603 2605 0
-2605 2613 0
32 -2605 2607 0
-2607 2614 0
34 -2607 2609 0
-2609 2615 0
36 -2609 2611 0
-2611 2616 0
38 -2611 0
30 2612 0
32 -2612 2613 0
34 -2613 2614 0
36 -2614 2615 0
38 -2615 2616 0
40 -2616 0
-27 2617 0
-2617 2618 0
-29 -2617 2619 0
-2619 2620 0
-31 -2619 2621 0
-2621 2622 0
-33 -2621 2623 0
-2623 2624 0
-35 -2623 2625 0
-2625 2626 0
-37 -2625 0
-29 2618 0
-2618 2627 0
-31 -2618 2620 0
-2620 2628 0
-33 -2620 2622 0
-2622 2629 0
-35 -2622 2624 0
-2624 2630 0
-37 -2624 2626 0
-2626 2631 0
-39 -2626 0
-31 2627 0
-33 -2627 2628 0
-35 -2628 2629 0
-37 -2629 2630 0
-39 -2630 2631 0
-41 -2631 0
27 2632 0
-2632 2633 0
29 -2632 2634 0
-2634 2635 0
31 -2634 2636 0
-2636 2637 0
33 -2636 2638 0
-2638 2639 0
35 -2638 2640 0
-2640 2641 0
37 -2640 0
29 2633 0
-2633 2642 0
31 -2633 2635 0
-2635 2643 0
33 -2635 2637 0
-2637 2644 0
35 -2637 2639 0
-2639 2645 0
37 -2639 2641 0
-2641 2646 0
39 -2641 0
31 2642 0
33 -2642 2643 0
35 -2643 2644 0
37 -2644 2645 0
39 -2645 2646 0
41 -2646 0
-28 2647 0
-2647 2648 0
-30 -2647 2649 0
-2649 2650 0
-32 -2649 2651 0
-2651 2652 0
-34 -2651 2653 0
-2653 2654 0
-36 -2653 2655 0
-2655 2656 0
-38 -2655 0
-30 2648 0
-2648 2657 0
-32 -2648 2650 0
-2650 2658 0
-34 -2650 2652 0
-2652 2659 0
-36 -2652 2654 0
-2654 2660 0
-38 -2654 2656 0
-2656 2661 0
-40 -2656 0
-32 2657 0
-34 -2657 2658 0
-36 -2658 2659 0
-38 -2659 2660 0
-40 -2660 2661 0
-42 -2661 0
28 2662 0
-2662 2663 0
30 -2662 2664 0
-2664 2665 0
32 -2664 2666 0
-2666 2667 0
34 -2666 2668 0
-2668 2669 0
36 -2668 2670 0
-2670 2671 0
38 -2670 0
30 2663 0
-2663 2672 0
32 -2663 2665 0
-2665 2673 0
34 -2665 2667 0
-2667 2674 0
36 -2667 2669 0
-2669 2675 0
38 -2669 2671 0
-2671 2676 0
40 -2671 0
32 2672 0
34 -2672 2673 0
36 -2673 2674 0
38 -2674 2675 0
40 -2675 2676 0
42 -2676 0
-29 2677 0
-2677 2678 0
-31 -2677 2679 0
-2679 2680 0
-33 -2679 2681 0
-2681 2682 0
-35 -2681 2683 0
-2683 2684 0
-37 -2683 2685 0
-2685 2686 0
-39 -2685 0
-31 2678 0
-2678 2687 0
-33 -2678 2680 0
-2680 2688 0
-35 -2680 2682 0
-2682 2689 0
-37 -2682 2684 0
-2684 2690 0
-39 -2684 2686 0
-2686 2691 0
-41 -2686 0
-33 2687 0
-35 -2687 2688 0
-37 -2688 2689 0
-39 -2689 2690 0
-41 -2690 2691 0
-43 -2691 0
29 2692 0
-2692 2693 0
31 -2692 2694 0
-2694 2695 0
33 -2694 2696 0
-2696 2697 0
35 -2696 2698 0
-2698 2699 0
37 -2698 2700 0
-2700 2701 0
39 -2700 0
31 2693 0
-2693 2702 0
33 -2693 2695 0
-2695 2703 0
35 -2695 2697 0
-2697 2704 0
37 -2697 2699 0
-2699 2705 0
39 -2699 2701 0
-2701 2706 0
41 -2701 0
33 2702 0
35 -2702 2703 0
37 -2703 2704 0
39 -2704 2705 0
41 -2705 2706 0
43 -2706 0
-30 2707 0
-2707 2708 0
-32 -2707 2709 0
-2709 2710 0
-34 -2709 2711 0
-2711 2712 0
-36 -2711 2713 0
-2713 2714 0
-38 -2713 2715 0
-2715 2716 0
-40 -2715 0
-32 2708 0
-2708 2717 0
-34 -2708 2710 0
-2710 2718 0
-36 -2710 2712 0
-2712 2719 0
-38 -2712 2714 0
-2714 2720 0
-40 -2714 2716 0
-2716 2721 0
-42 -2716 0
-34 2717 0
-36 -2717 2718 0
-38 -2718 2719 0
-40 -2719 2720 0
-42 -2720 2721 0
-44 -2721 0
30 2722 0
-2722 2723 0
32 -2722 2724 0
-2724 2725 0
34 -2724 2726 0
-2726 2727 0
36 -2726 2728 0
-2728 2729 0
38 -2728 2730 0
-2730 2731 0
40 -2730 0
32 2723 0
-2723 2732 0
34 -2723 2725 0
-2725 2733 0
36 -2725 2727 0
-2727 2734 0
38 -2727 2729 0
-2729 2735 0
40 -2729 2731 0
-2731 2736 0
42 -2731 0
34 2732 0
36 -2732 2733 0
38 -2733 2734 0
40 -2734 2735 0
42 -2735 2736 0
44 -2736 0
-31 2737 0
-2737 2738 0
-33 -2737 2739 0
-2739 2740 0
-35 -2739 2741 0
-2741 2742 0
-37 -2741 2743 0
-2743 2744 0
-39 -2743 2745 0
-2745 2746 0
-41 -2745 0
-33 2738 0
-2738 2747 0
-35 -2738 2740 0
-2740 2748 0
-37 -2740 2742 0
-2742 2749 0
-39 -2742 2744 0
-2744 2750 0
-41 -2744 2746 0
-2746 2751 0
-43 -2746 0
-35 2747 0
-37 -2747 2748 0
-39 -2748 2749 0
-41 -2749 2750 0
-43 -2750 2751 0
-45 -2751 0
31 2752 0
-2752 2753 0
33 -2752 2754 0
-2754 2755 0
35 -2754 2756 0
-2756 2757 0
37 -2756 2758 0
-2758 2759 0
39 -2758 2760 0
-2760 2761 0
41 -2760 0
33 2753 0
-2753 2762 0
35 -2753 2755 0
-2755 2763 0
37 -2755 2757 0
-2757 2764 0
39 -2757 2759 0
-2759 2765 0
41 -2759 2761 0
-2761 2766 0
43 -2761 0
35 2762 0
37 -2762 2763 0
39 -2763 2764 0
41 -2764 2765 0
43 -2765 2766 0
45 -2766 0
-32 2767 0
-2767 2768 0
-34 -2767 2769 0
-2769 2770 0
-36 -2769 2771 0
-2771 2772 0
-38 -2771 2773 0
-2773 2774 0
-40 -2773 2775 0
-2775 2776 0
-42 -2775 0
-34 2768 0
-2768 2777 0
-36 -2768 2770 0
-2770 2778 0
-38 -2770 2772 0
-2772 2779 0
-40 -2772 2774 0
-2774 2780 0
-42 -2774 2776 0
-2776 2781 0
-44 -2776 0
-36 2777 0
-38 -2777 2778 0
-40 -2778 2779 0
-42 -2779 2780 0
-44 -2780 2781 0
-46 -2781 0
32 2782 0
-2782 2783 0
34 -2782 2784 0
-2784 2785 0
36 -2784 2786 0
-2786 2787 0
38 -2786 2788 0
-2788 2789 0
40 -2788 2790 0
-2790 2791 0
42 -2790 0
34 2783 0
-2783 2792 0
36 -2783 2785 0
-2785 2793 0
38 -2785 2787 0
-2787 2794 0
40 -2787 2789 0
-2789 2795 0
42 -2789 2791 0
-2791 2796 0
44 -2791 0
36 2792 0
38 -2792 2793 0
40 -2793 2794 0
42 -2794 2795 0
44 -2795 2796 0
46 -2796 0
-33 2797 0
-2797 2798 0
-35 -2797 2799 0
-2799 2800 0
-37 -2799 2801 0
-2801 2802 0
-39 -2801 2803 0
-2803 2804 0
-41 -2803 2805 0
-2805 2806 0
-43 -2805 0
-35 2798 0
-2798 2807 0
-37 -2798 2800 0
-2800 2808 0
-39 -2800 2802 0
-2802 2809 0
-41 -2802 2804 0
-2804 2810 0
-43 -2804 2806 0
-2806 2811 0
-45 -2806 0
-37 2807 0
-39 -2807 2808 0
-41 -2808 2809 0
-43 -2809 2810 0
-45 -2810 2811 0
-47 -2811 0
33 2812 0
-2812 2813 0
35 -2812 2814 0
-2814 2815 0
37 -2814 2816 0
-2816 2817 0
39 -2816 2818 0
-2818 2819 0
41 -2818 2820 0
-2820 2821 0
43 -2820 0
35 2813 0
-2813 2822 0
37 -2813 2815 0
-2815 2823 0
39 -2815 2817 0
-2817 2824 0
41 -2817 2819 0
-2819 2825 0
43 -2819 2821 0
-2821 2826 0
45 -2821 0
37 2822 0
39 -2822 2823 0
41 -2823 2824 0
43 -2824 2825 0
45 -2825 2826 0
47 -2826 0
-34 2827 0
-2827 2828 0
-36 -2827 2829 0
-2829 2830 0
-38 -2829 2831 0
-2831 2832 0
-40 -2831 2833 0
-2833 2834 0
-42 -2833 2835 0
-2835 2836 0
-44 -2835 0
-36 2828 0
-2828 2837 0
-38 -2828 2830 0
-2830 2838 0
-40 -2830 2832 0
-2832 2839 0
-42 -2832 2834 0
-2834 2840 0
-44 -2834 2836 0
-2836 2841 0
-46 -2836 0
-38 2837 0
-40 -2837 2838 0
-42 -2838 2839 0
-44 -2839 2840 0
-46 -2840 2841 0
-48 -2841 0
34 2842 0
-2842 2843 0
36 -2842 2844 0
-2844 2845 0
38 -2844 2846 0
-2846 2847 0
40 -2846 2848 0
-2848 2849 0
42 -2848 2850 0
-2850 2851 0
44 -2850 0
36 2843 0
-2843 2852 0
38 -2843 2845 0
-2845 2853 0
40 -2845 2847 0
-2847 2854 0
42 -2847 2849 0
-2849 2855 0
44 -2849 2851 0
-2851 2856 0
46 -2851 0
38 2852 0
40 -2852 2853 0
42 -2853 2854 0
44 -2854 2855 0
46 -2855 2856 0
48 -2856 0
-35 2857 0
-2857 2858 0
-37 -2857 2859 0
-2859 2860 0
-39 -2859 2861 0
-2861 2862 0
-41 -2861 2863 0
-2863 2864 0
-43 -2863 2865 0
-2865 2866 0
-45 -2865 0
-37 2858 0
-2858 2867 0
-39 -2858 2860 0
-2860 2868 0
-41 -2860 2862 0
-2862 2869 0
-43 -2862 2864 0
-2864 2870 0
-45 -2864 2866 0
-2866 2871 0
-47 -2866 0
-39 2867 0
-41 -2867 2868 0
-43 -2868 2869 0
-45 -2869 2870 0
-47 -2870 2871 0
-49 -2871 0
35 2872 0
-2872 2873 0
37 -2872 2874 0
-2874 2875 0
39 -2874 2876 0
-2876 2877 0
41 -2876 2878 0
-2878 2879 0
43 -2878 2880 0
-2880 2881 0
45 -2880 0
37 2873 0
-2873 2882 0
39 -2873 2875 0
-2875 2883 0
41 -2875 2877 0
-2877 2884 0
43 -2877 2879 0
-2879 2885 0
45 -2879 2881 0
-2881 2886 0
47 -2881 0
39 2882 0
41 -2882 2883 0
43 -2883 2884 0
45 -2884 2885 0
47 -2885 2886 0
49 -2886 0
-36 2887 0
-2887 2888 0
-38 -2887 2889 0
-2889 2890 0
-40 -2889 2891 0
-2891 2892 0
-42 -2891 2893 0
-2893 2894 0
-44 -2893 2895 0
-2895 2896 0
-46 -2895 0
-38 2888 0
-2888 2897 0
-40 -2888 2890 0
-2890 2898 0
-42 -2890 2892 0
-2892 2899 0
-44 -2892 2894 0
-2894 2900 0
-46 -2894 2896 0
-2896 2901 0
-48 -2896 0
-40 2897 0
-42 -2897 2898 0
-44 -2898 2899 0
-46 -2899 2900 0
-48 -2900 2901 0
-50 -2901 0
36 2902 0
-2902 2903 0
38 -2902 2904 0
-2904 2905 0
40 -2904 2906 0
-2906 2907 0
42 -2906 2908 0
-2908 2909 0
44 -2908 2910 0
-2910 2911 0
46 -2910 0
38 2903 0
-2903 2912 0
40 -2903 2905 0
-2905 2913 0
42 -2905 2907 0
-2907 2914 0
44 -2907 2909 0
-2909 2915 0
46 -2909 2911 0
-2911 2916 0
48 -2911 0
40 2912 0
42 -2912 2913 0
44 -2913 2914 0
46 -2914 2915 0
48 -2915 2916 0
50 -2916 0
-37 2917 0
-2917 2918 0
-39 -2917 2919 0
-2919 2920 0
-41 -2919 2921 0
-2921 2922 0
-43 -2921 2923 0
-2923 2924 0
-45 -2923 2925 0
-2925 2926 0
-47 -2925 0
-39 2918 0
-2918 2927 0
-41 -2918 2920 0
-2920 2928 0
-43 -2920 2922 0
-2922 2929 0
-45 -2922 2924 0
-2924 2930 0
-47 -2924 2926 0
-2926 2931 0
-49 -2926 0
-41 2927 0
-43 -2927 2928 0
-45 -2928 2929 0
-47 -2929 2930 0
-49 -2930 2931 0
-51 -2931 0
37 2932 0
-2932 2933 0
39 -2932 2934 0
-2934 2935 0
41 -2934 2936 0
-2936 2937 0
43 -2936 2938 0
-2938 2939 0
45 -2938 2940 0
-2940 2941 0
47 -2940 0
39 2933 0
-2933 2942 0
41 -2933 2935 0
-2935 2943 0
43 -2935 2937 0
-2937 2944 0
45 -2937 2939 0
-2939 2945 0
47 -2939 2941 0
-2941 2946 0
49 -2941 0
41 2942 0
43 -2942 2943 0
45 -2943 2944 0
47 -2944 2945 0
49 -2945 2946 0
51 -2946 0
-38 2947 0
-2947 2948 0
-40 -2947 2949 0
-2949 2950 0
-42 -2949 2951 0
-2951 2952 0
-44 -2951 2953 0
-2953 2954 0
-46 -2953 2955 0
-2955 2956 0
-48 -2955 0
-40 2948 0
-2948 2957 0
-42 -2948 2950 0
-2950 2958 0
-44 -2950 2952 0
-2952 2959 0
-46 -2952 2954 0
-2954 2960 0
-48 -2954 2956 0
-2956 2961 0
-50 -2956 0
-42 2957 0
-44 -2957 2958 0
-46 -2958 2959 0
-48 -2959 2960 0
-50 -2960 2961 0
-52 -2961 0
38 2962 0
-2962 2963 0
40 -2962 2964 0
-2964 2965 0
42 -2964 2966 0
-2966 2967 0
44 -2966 2968 0
-2968 2969 0
46 -2968 2970 0
-2970 2971 0
48 -2970 0
40 2963 0
-2963 2972 0
42 -2963 2965 0
-2965 2973 0
44 -2965 2967 0
-2967 2974 0
46 -2967 2969 0
-2969 2975 0
48 -2969 2971 0
-2971 2976 0
50 -2971 0
42 2972 0
44 -2972 2973 0
46 -2973 2974 0
48 -2974 2975 0
50 -2975 2976 0
52 -2976 0
-39 2977 0
-2977 2978 0
-41 -2977 2979 0
-2979 2980 0
-43 -2979 2981 0
-2981 2982 0
-45 -2981 2983 0
-2983 2984 0
-47 -2983 2985 0
-2985 2986 0
-49 -2985 0
-41 2978 0
-2978 2987 0
-43 -2978 2980 0
-2980 2988 0
-45 -2980 2982 0
-2982 2989 0
-47 -2982 2984 0
-2984 2990 0
-49 -2984 2986 0
-2986 2991 0
-51 -2986 0
-43 2987 0
-45 -2987 2988 0
-47 -2988 2989 0
-49 -2989 2990 0
-51 -2990 2991 0
-53 -2991 0
39 2992 0
-2992 2993 0
41 -2992 2994 0
-2994 2995 0
43 -2994 2996 0
-2996 2997 0
45 -2996 2998 0
-2998 2999 0
47 -2998 3000 0
-3000 3001 0
49 -3000 0
41 2993 0
-2993 3002 0
43 -2993 2995 0
-2995 3003 0
45 -2995 2997 0
-2997 3004 0
47 -2997 2999 0
-2999 3005 0
49 -2999 3001 0
-3001 3006 0
51 -3001 0
43 3002 0
45 -3002 3003 0
47 -3003 3004 0
49 -3004 3005 0
51 -3005 3006 0
53 -3006 0
-40 3007 0
-3007 3008 0
-42 -3007 3009 0
-3009 3010 0
-44 -3009 3011 0
-3011 3012 0
-46 -3011 3013 0
-3013 3014 0
-48 -3013 3015 0
-3015 3016 0
-50 -3015 0
-42 3008 0
-3008 3017 0
-44 -3008 3010 0
-3010 3018 0
-46 -3010 3012 0
-3012 3019 0
-48 -3012 3014 0
-3014 3020 0
-50 -3014 3016 0
-3016 3021 0
-52 -3016 0
-44 3017 0
-46 -3017 3018 0
-48 -3018 3019 0
-50 -3019 3020 0
-52 -3020 3021 0
-54 -3021 0
40 3022 0
-3022 3023 0
42 -3022 3024 0
-3024 3025 0
44 -3024 3026 0
-3026 3027 0
46 -3026 3028 0
-3028 3029 0
48 -3028 3030 0
-3030 3031 0
50 -3030 0
42 3023 0
-3023 3032 0
44 -3023 3025 0
-3025 3033 0
46 -3025 3027 0
-3027 3034 0
48 -3027 3029 0
-3029 3035 0
50 -3029 3031 0
-3031 3036 0
52 -3031 0
44 3032 0
46 -3032 3033 0
48 -3033 3034 0
50 -3034 3035 0
52 -3035 3036 0
54 -3036 0
-41 3037 0
-3037 3038 0
-43 -3037 3039 0
-3039 3040 0
-45 -3039 3041 0
-3041 3042 0
-47 -3041 3043 0
-3043 3044 0
-49 -3043 3045 0
-3045 3046 0
-51 -3045 0
-43 3038 0
-3038 3047 0
-45 -3038 3040 0
-3040 3048 0
-47 -3040 3042 0
-3042 3049 0
-49 -3042 3044 0
-3044 3050 0
-51 -3044 3046 0
-3046 3051 0
-53 -3046 0
-45 3047 0
-47 -3047 3048 0
-49 -3048 3049 0
-51 -3049 3050 0
-53 -3050 3051 0
-55 -3051 0
41 3052 0
-3052 3053 0
43 -3052 3054 0
-3054 3055 0
45 -3054 3056 0
-3056 3057 0
47 -3056 3058 0
-3058 3059 0
49 -3058 3060 0
-3060 3061 0
51 -3060 0
43 3053 0
-3053 3062 0
45 -3053 3055 0
-3055 3063 0
47 -3055 3057 0
-3057 3064 0
49 -3057 3059 0
-3059 3065 0
51 -3059 3061 0
-3061 3066 0
53 -3061 0
45 3062 0
47 -3062 3063 0
49 -3063 3064 0
51 -3064 3065 0
53 -3065 3066 0
55 -3066 0
-42 3067 0
-3067 3068 0
-44 -3067 3069 0
-3069 3070 0
-46 -3069 3071 0
-3071 3072 0
-48 -3071 3073 0
-3073 3074 0
-50 -3073 3075 0
-3075 3076 0
-52 -3075 0
-44 3068 0
-3068 3077 0
-46 -3068 3070 0
-3070 3078 0
-48 -3070 3072 0
-3072 3079 0
-50 -3072 3074 0
-3074 3080 0
-52 -3074 3076 0
-3076 3081 0
-54 -3076 0
-46 3077 0
-48 -3077 3078 0
-50 -3078 3079 0
-52 -3079 3080 0
-54 -3080 3081 0
-56 -3081 0
42 3082 0
-3082 3083 0
44 -3082 3084 0
-3084 3085 0
46 -3084 3086 0
-3086 3087 0
48 -3086 3088 0
-3088 3089 0
50 -3088 3090 0
-3090 3091 0
52 -3090 0
44 3083 0
-3083 3092 0
46 -3083 3085 0
-3085 3093 0
48 -3085 3087 0
-3087 3094 0
50 -3087 3089 0
-3089 3095 0
52 -3089 3091 0
-3091 3096 0
54 -3091 0
46 3092 0
48 -3092 3093 0
50 -3093 3094 0
52 -3094 3095 0
54 -3095 3096 0
56 -3096 0
-43 3097 0
-3097 3098 0
-45 -3097 3099 0
-3099 3100 0
-47 -3099 3101 0
-3101 3102 0
-49 -3101 3103 0
-3103 3104 0
-51 -3103 3105 0
-3105 3106 0
-53 -3105 0
-45 3098 0
-3098 3107 0
-47 -3098 3100 0
-3100 3108 0
-49 -3100 3102 0
-3102 3109 0
-51 -3102 3104 0
-3104 3110 0
-53 -3104 3106 0
-3106 3111 0
-55 -3106 0
-47 3107 0
-49 -3107 3108 0
-51 -3108 3109 0
-53 -3109 3110 0
-55 -3110 3111 0
-57 -3111 0
43 3112 0
-3112 3113 0
45 -3112 3114 0
-3114 3115 0
47 -3114 3116 0
-3116 3117 0
49 -3116 3118 0
-3118 3119 0
51 -3118 3120 0
-3120 3121 0
53 -3120 0
45 3113 0
-3113 3122 0
47 -3113 3115 0
-3115 3123 0
49 -3115 3117 0
-3117 3124 0
51 -3117 3119 0
-3119 3125 0
53 -3119 3121 0
-3121 3126 0
55 -3121 0
47 3122 0
49 -3122 3123 0
51 -3123 3124 0
53 -3124 3125 0
55 -3125 3126 0
57 -3126 0
-44 3127 0
-3127 3128 0
-46 -3127 3129 0
-3129 3130 0
-48 -3129 3131 0
-3131 3132 0
-50 -3131 3133 0
-3133 3134 0
-52 -3133 3135 0
-3135 3136 0
-54 -3135 0
-46 3128 0
-3128 3137 0
-48 -3128 3130 0
-3130 3138 0
-50 -3130 3132 0
-3132 3139 0
-52 -3132 3134 0
-3134 3140 0
-54 -3134 3136 0
-3136 3141 0
-56 -3136 0
-48 3137 0
-50 -3137 3138 0
-52 -3138 3139 0
-54 -3139 3140 0
-56 -3140 3141 0
-58 -3141 0
44 3142 0
-3142 3143 0
46 -3142 3144 0
-3144 3145 0
48 -3144 3146 0
-3146 3147 0
50 -3146 3148 0
-3148 3149 0
52 -3148 3150 0
-3150 3151 0
54 -3150 0
46 3143 0
-3143 3152 0
48 -3143 3145 0
-3145 3153 0
50 -3145 3147 0
-3147 3154 0
52 -3147 3149 0
-3149 3155 0
54 -3149 3151 0
-3151 3156 0
56 -3151 0
48 3152 0
50 -3152 3153 0
52 -3153 3154 0
54 -3154 3155 0
56 -3155 3156 0
58 -3156 0
-45 3157 0
-3157 3158 0
-47 -3157 3159 0
-3159 3160 0
-49 -3159 3161 0
-3161 3162 0
-51 -3161 3163 0
-3163 3164 0
-53 -3163 3165 0
-3165 3166 0
-55 -3165 0
-47 3158 0
-3158 3167 0
-49 -3158 3160 0
-3160 3168 0
-51 -3160 3162 0
-3162 3169 0
-53 -3162 3164 0
-3164 3170 0
-55 -3164 3166 0
-3166 3171 0
-57 -3166 0
-49 3167 0
-51 -3167 3168 0
-53 -3168 3169 0
-55 -3169 3170 0
-57 -3170 3171 0
-59 -3171 0
45 3172 0
-3172 3173 0
47 -3172 3174 0
-3174 3175 0
49 -3174 3176 0
-3176 3177 0
51 -3176 3178 0
-3178 3179 0
53 -3178 3180 0
-3180 3181 0
55 -3180 0
47 3173 0
-3173 3182 0
49 -3173 3175 0
-3175 3183 0
51 -3175 3177 0
-3177 3184 0
53 -3177 3179 0
-3179 3185 0
55 -3179 3181 0
-3181 3186 0
57 -3181 0
49 3182 0
51 -3182 3183 0
53 -3183 3184 0
55 -3184 3185 0
57 -3185 3186 0
59 -3186 0
-46 3187 0
-3187 3188 0
-48 -3187 3189 0
-3189 3190 0
-50 -3189 3191 0
-3191 3192 0
-52 -3191 3193 0
-3193 3194 0
-54 -3193 3195 0
-3195 3196 0
-56 -3195 0
-48 3188 0
-3188 3197 0
-50 -3188 3190 0
-3190 3198 0
-52 -3190 3192 0
-3192 3199 0
-54 -3192 3194 0
-3194 3200 0
-56 -3194 3196 0
-3196 3201 0
-58 -3196 0
-50 3197 0
-52 -3197 3198 0
-54 -3198 3199 0
-56 -3199 3200 0
-58 -3200 3201 0
-60 -3201 0
46 3202 0
-3202 3203 0
48 -3202 3204 0
-3204 3205 0
50 -3204 3206 0
-3206 3207 0
52 -3206 3208 0
-3208 3209 0
54 -3208 3210 0
-3210 3211 0
56 -3210 0
48 3203 0
-3203 3212 0
50 -3203 3205 0
-3205 3213 0
52 -3205 3207 0
-3207 3214 0
54 -3207 3209 0
-3209 3215 0
56 -3209 3211 0
-3211 3216 0
58 -3211 0
50 3212 0
52 -3212 3213 0
54 -3213 3214 0
56 -3214 3215 0
58 -3215 3216 0
60 -3216 0
-47 3217 0
-3217 3218 0
-49 -3217 3219 0
-3219 3220 0
-51 -3219 3221 0
-3221 3222 0
-53 -3221 3223 0
-3223 3224 0
-55 -3223 3225 0
-3225 3226 0
-57 -3225 0
-49 3218 0
-3218 3227 0
-51 -3218 3220 0
-3220 3228 0
-53 -3220 3222 0
-3222 3229 0
-55 -3222 3224 0
-3224 3230 0
-57 -3224 3226 0
-3226 3231 0
-59 -3226 0
-51 3227 0
-53 -3227 3228 0
-55 -3228 3229 0
-57 -3229 3230 0
-59 -3230 3231 0
-61 -3231 0
47 3232 0
-3232 3233 0
49 -3232 3234 0
-3234 3235 0
51 -3234 3236 0
-3236 3237 0
53 -3236 3238 0
-3238 3239 0
55 -3238 3240 0
-3240 3241 0
57 -3240 0
49 3233 0
-3233 3242 0
51 -3233 3235 0
-3235 3243 0
53 -3235 3237 0
-3237 3244 0
55 -3237 3239 0
-3239 3245 0
57 -3239 3241 0
-3241 3246 0
59 -3241 0
51 3242 0
53 -3242 3243 0
55 -3243 3244 0
57 -3244 3245 0
59 -3245 3246 0
61 -3246 0
-48 3247 0
-3247 3248 0
-50 -3247 3249 0
-3249 3250 0
-52 -3249 3251 0
-3251 3252 0
-54 -3251 3253 0
-3253 3254 0
-56 -3253 3255 0
-3255 3256 0
-58 -3255 0
-50 3248 0
-3248 3257 0
-52 -3248 3250 0
-3250 3258 0
-54 -3250 3252 0
-3252 3259 0
-56 -3252 3254 0
-3254 3260 0
-58 -3254 3256 0
-3256 3261 0
-60 -3256 0
-52 3257 0
-54 -3257 3258 0
-56 -3258 3259 0
-58 -3259 3260 0
-60 -3260 3261 0
-62 -3261 0
48 3262 0
-3262 3263 0
50 -3262 3264 0
-3264 3265 0
52 -3264 3266 0
-3266 3267 0
54 -3266 3268 0
-3268 3269 0
56 -3268 3270 0
-3270 3271 0
58 -3270 0
50 3263 0
-3263 3272 0
52 -3263 3265 0
-3265 3273 0
54 -3265 3267 0
-3267 3274 0
56 -3267 3269 0
-3269 3275 0
58 -3269 3271 0
-3271 3276 0
60 -3271 0
52 3272 0
54 -3272 3273 0
56 -3273 3274 0
58 -3274 3275 0
60 -3275 3276 0
62 -3276 0
-49 3277 0
-3277 3278 0
-51 -3277 3279 0
-3279 3280 0
-53 -3279 3281 0
-3281 3282 0
-55 -3281 3283 0
-3283 3284 0
-57 -3283 3285 0
-3285 3286 0
-59 -3285 0
-51 3278 0
-3278 3287 0
-53 -3278 3280 0
-3280 3288 0
-55 -3280 3282 0
-3282 3289 0
-57 -3282 3284 0
-3284 3290 0
-59 -3284 3286 0
-3286 3291 0
-61 -3286 0
-53 3287 0
-55 -3287 3288 0
-57 -3288 3289 0
-59 -3289 3290 0
-61 -3290 3291 0
-63 -3291 0
49 3292 0
-3292 3293 0
51 -3292 3294 0
-3294 3295 0
53 -3294 3296 0
-3296 3297 0
55 -3296 3298 0
-3298 3299 0
57 -3298 3300 0
-3300 3301 0
59 -3300 0
51 3293 0
-3293 3302 0
53 -3293 3295 0
-3295 3303 0
55 -3295 3297 0
-3297 3304 0
57 -3297 3299 0
-3299 3305 0
59 -3299 3301 0
-3301 3306 0
61 -3301 0
53 3302 0
55 -3302 3303 0
57 -3303 3304 0
59 -3304 3305 0
61 -3305 3306 0
63 -3306 0
-50 3307 0
-3307 3308 0
-52 -3307 3309 0
-3309 3310 0
-54 -3309 3311 0
-3311 3312 0
-56 -3311 3313 0
-3313 3314 0
-58 -3313 3315 0
-3315 3316 0
-60 -3315 0
-52 3308 0
-3308 3317 0
-54 -3308 3310 0
-3310 3318 0
-56 -3310 3312 0
-3312 3319 0
-58 -3312 3314 0
-3314 3320 0
-60 -3314 3316 0
-3316 3321 0
-62 -3316 0
-54 3317 0
-56 -3317 3318 0
-58 -3318 3319 0
-60 -3319 3320 0
-62 -3320 3321 0
-64 -3321 0
50 3322 0
-3322 3323 0
52 -3322 3324 0
-3324 3325 0
54 -3324 3326 0
-3326 3327 0
56 -3326 3328 0
-3328 3329 0
58 -3328 3330 0
-3330 3331 0
60 -3330 0
52 3323 0
-3323 3332 0
54 -3323 3325 0
-3325 3333 0
56 -3325 3327 0
-3327 3334 0
58 -3327 3329 0
-3329 3335 0
60 -3329 3331 0
-3331 3336 0
62 -3331 0
54 3332 0
56 -3332 3333 0
58 -3333 3334 0
60 -3334 3335 0
62 -3335 3336 0
64 -3336 0
-51 3337 0
-3337 3338 0
-53 -3337 3339 0
-3339 3340 0
-55 -3339 3341 0
-3341 3342 0
-57 -3341 3343 0
-3343 3344 0
-59 -3343 3345 0
-3345 3346 0
-61 -3345 0
-53 3338 0
-3338 3347 0
-55 -3338 3340 0
-3340 3348 0
-57 -3340 3342 0
-3342 3349 0
-59 -3342 3344 0
-3344 3350 0
-61 -3344 3346 0
-3346 3351 0
-63 -3346 0
-55 3347 0
-57 -3347 3348 0
-59 -3348 3349 0
-61 -3349 3350 0
-63 -3350 3351 0
-65 -3351 0
51 3352 0
-3352 3353 0
53 -3352 3354 0
-3354 3355 0
55 -3354 3356 0
-3356 3357 0
57 -3356 3358 0
-3358 3359 0
59 -3358 3360 0
-3360 3361 0
61 -3360 0
53 3353 0
-3353 3362 0
55 -3353 3355 0
-3355 3363 0
57 -3355 3357 0
-3357 3364 0
59 -3357 3359 0
-3359 3365 0
61 -3359 3361 0
-3361 3366 0
63 -3361 0
55 3362 0
57 -3362 3363 0
59 -3363 3364 0
61 -3364 3365 0
63 -3365 3366 0
65 -3366 0
-52 3367 0
-3367 3368 0
-54 -3367 3369 0
-3369 3370 0
-56 -3369 3371 0
-3371 3372 0
-58 -3371 3373 0
-3373 3374 0
-60 -3373 3375 0
-3375 3376 0
-62 -3375 0
-54 3368 0
-3368 3377 0
-56 -3368 3370 0
-3370 3378 0
-58 -3370 3372 0
-3372 3379 0
-60 -3372 3374 0
-3374 3380 0
-62 -3374 3376 0
-3376 3381 0
-64 -3376 0
-56 3377 0
-58 -3377 3378 0
-60 -3378 3379 0
-62 -3379 3380 0
-64 -3380 3381 0
-66 -3381 0
52 3382 0
-3382 3383 0
54 -3382 3384 0
-3384 3385 0
56 -3384 3386 0
-3386 3387 0
58 -3386 3388 0
-3388 3389 0
60 -3388 3390 0
-3390 3391 0
62 -3390 0
54 3383 0
-3383 3392 0
56 -3383 3385 0
-3385 3393 0
58 -3385 3387 0
-3387 3394 0
60 -3387 3389 0
-3389 3395 0
62 -3389 3391 0
-3391 3396 0
64 -3391 0
56 3392 0
58 -3392 3393 0
60 -3393 3394 0
62 -3394 3395 0
64 -3395 3396 0
66 -3396 0
-1 3397 0
-3397 3398 0
-4 -3397 3399 0
-3399 3400 0
-7 -3399 3401 0
-3401 3402 0
-10 -3401 3403 0
-3403 3404 0
-13 -3403 3405 0
-3405 3406 0
-16 -3405 0
-4 3398 0
-3398 3407 0
-7 -3398 3400 0
-3400 3408 0
-10 -3400 3402 0
-3402 3409 0
-13 -3402 3404 0
-3404 3410 0
-16 -3404 3406 0
-3406 3411 0
-19 -3406 0
-7 3407 0
-10 -3407 3408 0
-13 -3408 3409 0
-16 -3409 3410 0
-19 -3410 3411 0
-22 -3411 0
1 3412 0
-3412 3413 0
4 -3412 3414 0
-3414 3415 0
7 -3414 3416 0
-3416 3417 0
10 -3416 3418 0
-3418 3419 0
13 -3418 3420 0
-3420 3421 0
16 -3420 0
4 3413 0
-3413 3422 0
7 -3413 3415 0
-3415 3423 0
10 -3415 3417 0
-3417 3424 0
13 -3417 3419 0
-3419 3425 0
16 -3419 3421 0
-3421 3426 0
19 -3421 0
7 3422 0
10 -3422 3423 0
13 -3423 3424 0
16 -3424 3425 0
19 -3425 3426 0
22 -3426 0
-2 3427 0
-3427 3428 0
-5 -3427 3429 0
-3429 3430 0
-8 -3429 3431 0
-3431 3432 0
-11 -3431 3433 0
-3433 3434 0
-14 -3433 3435 0
-3435 3436 0
-17 -3435 0
-5 3428 0
-3428 3437 0
-8 -3428 3430 0
-3430 3438 0
-11 -3430 3432 0
-3432 3439 0
-14 -3432 3434 0
-3434 3440 0
-17 -3434 3436 0
-3436 3441 0
-20 -3436 0
-8 3437 0
-11 -3437 3438 0
-14 -3438 3439 0
-17 -3439 3440 0
-20 -3440 3441 0
-23 -3441 0
2 3442 0
-3442 3443 0
5 -3442 3444 0
-3444 3445 0
8 -3444 3446 0
-3446 3447 0
11 -3446 3448 0
-3448 3449 0
14 -3448 3450 0
-3450 3451 0
17 -3450 0
5 3443 0
-3443 3452 0
8 -3443 3445 0
-3445 3453 0
11 -3445 3447 0
-3447 3454 0
14 -3447 3449 0
-3449 3455 0
17 -3449 3451 0
-3451 3456 0
20 -3451 0
8 3452 0
11 -3452 3453 0
14 -3453 3454 0
17 -3454 3455 0
20 -3455 3456 0
23 -3456 0
-3 3457 0
-3457 3458 0
-6 -3457 3459 0
-3459 3460 0
-9 -3459 3461 0
-3461 3462 0
-12 -3461 3463 0
-3463 3464 0
-15 -3463 3465 0
-3465 3466 0
-18 -3465 0
-6 3458 0
-3458 3467 0
-9 -3458 3460 0
-3460 3468 0
-12 -3460 3462 0
-3462 3469 0
-15 -3462 3464 0
-3464 3470 0
-18 -3464 3466 0
-3466 3471 0
-21 -3466 0
-9 3467 0
-12 -3467 3468 0
-15 -3468 3469 0
-18 -3469 3470 0
-21 -3470 3471 0
-24 -3471 0
3 3472 0
-3472 3473 0
6 -3472 3474 0
-3474 3475 0
9 -3474 3476 0
-3476 3477 0
12 -3476 3478 0
-3478 3479 0
15 -3478 3480 0
-3480 3481 0
18 -3480 0
6 3473 0
-3473 3482 0
9 -3473 3475 0
-3475 3483 0
12 -3475 3477 0
-3477 3484 0
15 -3477 3479 0
-3479 3485 0
18 -3479 3481 0
-3481 3486 0
21 -3481 0
9 3482 0
12 -3482 3483 0
15 -3483 3484 0
18 -3484 3485 0
21 -3485 3486 0
24 -3486 0
-4 3487 0
-3487 3488 0
-7 -3487 3489 0
-3489 3490 0
-10 -3489 3491 0
-3491 3492 0
-13 -3491 3493 0
-3493 3494 0
-16 -3493 3495 0
-3495 3496 0
-19 -3495 0
-7 3488 0
-3488 3497 0
-10 -3488 3490 0
-3490 3498 0
-13 -3490 3492 0
-3492 3499 0
-16 -3492 3494 0
-3494 3500 0
-19 -3494 3496 0
-3496 3501 0
-22 -3496 0
-10 3497 0
-13 -3497 3498 0
-16 -3498 3499 0
-19 -3499 3500 0
-22 -3500 3501 0
-25 -3501 0
4 3502 0
-3502 3503 0
7 -3502 3504 0
-3504 3505 0
10 -3504 3506 0
-3506 3507 0
13 -3506 3508 0
-3508 3509 0
16 -3508 3510 0
-3510 3511 0
19 -3510 0
7 3503 0
-3503 3512 0
10 -3503 3505 0
-3505 3513 0
13 -3505 3507 0
-3507 3514 0
16 -3507 3509 0
-3509 3515 0
19 -3509 3511 0
-3511 3516 0
22 -3511 0
10 3512 0
13 -3512 3513 0
16 -3513 3514 0
19 -3514 3515 0
22 -3515 3516 0
25 -3516 0
-5 3517 0
-3517 3518 0
-8 -3517 3519 0
-3519 3520 0
-11 -3519 3521 0
-3521 3522 0
-14 -3521 3523 0
-3523 3524 0
-17 -3523 3525 0
-3525 3526 0
-20 -3525 0
-8 3518 0
-3518 3527 0
-11 -3518 3520 0
-3520 3528 0
-14 -3520 3522 0
-3522 3529 0
-17 -3522 3524 0
-3524 3530 0
-20 -3524 3526 0
-3526 3531 0
-23 -3526 0
-11 3527 0
-14 -3527 3528 0
-17 -3528 3529 0
-20 -3529 3530 0
-23 -3530 3531 0
-26 -3531 0
5 3532 0
-3532 3533 0
8 -3532 3534 0
-3534 3535 0
11 -3534 3536 0
-3536 3537 0
14 -3536 3538 0
-3538 3539 0
17 -3538 3540 0
-3540 3541 0
20 -3540 0
8 3533 0
-3533 3542 0
11 -3533 3535 0
-3535 3543 0
14 -3535 3537 0
-3537 3544 0
17 -3537 3539 0
-3539 3545 0
20 -3539 3541 0
-3541 3546 0
23 -3541 0
11 3542 0
14 -3542 3543 0
17 -3543 3544 0
20 -3544 3545 0
23 -3545 3546 0
26 -3546 0
-6 3547 0
-3547 3548 0
-9 -3547 3549 0
-3549 3550 0
-12 -3549 3551 0
-3551 3552 0
-15 -3551 3553 0
-3553 3554 0
-18 -3553 3555 0
-3555 3556 0
-21 -3555 0
-9 3548 0
-3548 3557 0
-12 -3548 3550 0
-3550 3558 0
-15 -3550 3552 0
-3552 3559 0
-18 -3552 3554 0
-3554 3560 0
-21 -3554 3556 0
-3556 3561 0
-24 -3556 0
-12 3557 0
-15 -3557 3558 0
-18 -3558 3559 0
-21 -3559 3560 0
-24 -3560 3561 0
-27 -3561 0
6 3562 0
-3562 3563 0
9 -3562 3564 0
-3564 3565 0
12 -3564 3566 0
-3566 3567 0
15 -3566 3568 0
-3568 3569 0
18 -3568 3570 0
-3570 3571 0
21 -3570 0
9 3563 0
-3563 3572 0
12 -3563 3565 0
-3565 3573 0
15 -3565 3567 0
-3567 3574 0
18 -3567 3569 0
-3569 3575 0
21 -3569 3571 0
-3571 3576 0
24 -3571 0
12 3572 0
15 -3572 3573 0
18 -3573 3574 0
21 -3574 3575 0
24 -3575 3576 0
27 -3576 0
-7 3577 0
-3577 3578 0
-10 -3577 3579 0
-3579 3580 0
-13 -3579 3581 0
-3581 3582 0
-16 -3581 3583 0
-3583 3584 0
-19 -3583 3585 0
-3585 3586 0
-22 -3585 0
-10 3578 0
-3578 3587 0
-13 -3578 3580 0
-3580 3588 0
-16 -3580 3582 0
-3582 3589 0
-19 -3582 3584 0
-3584 3590 0
-22 -3584 3586 0
-3586 3591 0
-25 -3586 0
-13 3587 0
-16 -3587 3588 0
-19 -3588 3589 0
-22 -3589 3590 0
-25 -3590 3591 0
-28 -3591 0
7 3592 0
-3592 3593 0
10 -3592 3594 0
-3594 3595 0
13 -3594 3596 0
-3596 3597 0
16 -3596 3598 0
-3598 3599 0
19 -3598 3600 0
-3600 3601 0
22 -3600 0
10 3593 0
-3593 3602 0
13 -3593 3595 0
-3595 3603 0
16 -3595 3597 0
-3597 3604 0
19 -3597 3599 0
-3599 3605 0
22 -3599 3601 0
-3601 3606 0
25 -3601 0
13 3602 0
16 -3602 3603 0
19 -3603 3604 0
22 -3604 3605 0
25 -3605 3606 0
28 -3606 0
-8 3607 0
-3607 3608 0
-11 -3607 3609 0
-3609 3610 0
-14 -3609 3611 0
-3611 3612 0
-17 -3611 3613 0
-3613 3614 0
-20 -3613 3615 0
-3615 3616 0
-23 -3615 0
-11 3608 0
-3608 3617 0
-14 -3608 3610 0
-3610 3618 0
-17 -3610 3612 0
-3612 3619 0
-20 -3612 3614 0
-3614 3620 0
-23 -3614 3616 0
-3616 3621 0
-26 -3616 0
-14 3617 0
-17 -3617 3618 0
-20 -3618 3619 0
-23 -3619 3620 0
-26 -3620 3621 0
-29 -3621 0
8 3622 0
-3622 3623 0
11 -3622 3624 0
-3624 3625 0
14 -3624 3626 0
-3626 3627 0
17 -3626 3628 0
-3628 3629 0
20 -3628 3630 0
-3630 3631 0
23 -3630 0
11 3623 0
-3623 3632 0
14 -3623 3625 0
-3625 3633 0
17 -3625 3627 0
-3627 3634 0
20 -3627 3629 0
-3629 3635 0
23 -3629 3631 0
-3631 3636 0
26 -3631 0
14 3632 0
17 -3632 3633 0
20 -3633 3634 0
23 -3634 3635 0
26 -3635 3636 0
29 -3636 0
-9 3637 0
-3637 3638 0
-12 -3637 3639 0
-3639 3640 0
-15 -3639 3641 0
-3641 3642 0
-18 -3641 3643 0
-3643 3644 0
-21 -3643 3645 0
-3645 3646 0
-24 -3645 0
-12 3638 0
-3638 3647 0
-15 -3638 3640 0
-3640 3648 0
-18 -3640 3642 0
-3642 3649 0
-21 -3642 3644 0
-3644 3650 0
-24 -3644 3646 0
-3646 3651 0
-27 -3646 0
-15 3647 0
-18 -3647 3648 0
-21 -3648 3649 0
-24 -3649 3650 0
-27 -3650 3651 0
-30 -3651 0
9 3652 0
-3652 3653 0
12 -3652 3654 0
-3654 3655 0
15 -3654 3656 0
-3656 3657 0
18 -3656 3658 0
-3658 3659 0
21 -3658 3660 0
-3660 3661 0
24 -3660 0
12 3653 0
-3653 3662 0
15 -3653 3655 0
-3655 3663 0
18 -3655 3657 0
-3657 3664 0
21 -3657 3659 0
-3659 3665 0
24 -3659 3661 0
-3661 3666 0
27 -3661 0
15 3662 0
18 -3662 3663 0
21 -3663 3664 0
24 -3664 3665 0
27 -3665 3666 0
30 -3666 0
-10 3667 0
-3667 3668 0
-13 -3667 3669 0
-3669 3670 0
-16 -3669 3671 0
-3671 3672 0
-19 -3671 3673 0
-3673 3674 0
-22 -3673 3675 0
-3675 3676 0
-25 -3675 0
-13 3668 0
-3668 3677 0
-16 -3668 3670 0
-3670 3678 0
-19 -3670 3672 0
-3672 3679 0
-22 -3672 3674 0
-3674 3680 0
-25 -3674 3676 0
-3676 3681 0
-28 -3676 0
-16 3677 0
-19 -3677 3678 0
-22 -3678 3679 0
-25 -3679 3680 0
-28 -3680 3681 0
-31 -3681 0
10 3682 0
-3682 3683 0
13 -3682 3684 0
-3684 3685 0
16 -3684 3686 0
-3686 3687 0
19 -3686 3688 0
-3688 3689 0
22 -3688 3690 0
-3690 3691 0
25 -3690 0
13 3683 0
-3683 3692 0
16 -3683 3685 0
-3685 3693 0
19 -3685 3687 0
-3687 3694 0
22 -3687 3689 0
-3689 3695 0
25 -3689 3691 0
-3691 3696 0
28 -3691 0
16 3692 0
19 -3692 3693 0
22 -3693 3694 0
25 -3694 3695 0
28 -3695 3696 0
31 -3696 0
-11 3697 0
-3697 3698 0
-14 -3697 3699 0
-3699 3700 0
-17 -3699 3701 0
-3701 3702 0
-20 -3701 3703 0
-3703 3704 0
-23 -3703 3705 0
-3705 3706 0
-26 -3705 0
-14 3698 0
-3698 3707 0
-17 -3698 3700 0
-3700 3708 0
-20 -3700 3702 0
-3702 3709 0
-23 -3702 3704 0
-3704 3710 0
-26 -3704 3706 0
-3706 3711 0
-29 -3706 0
-17 3707 0
-20 -3707 3708 0
-23 -3708 3709 0
-26 -3709 3710 0
-29 -3710 3711 0
-32 -3711 0
11 3712 0
-3712 3713 0
14 -3712 3714 0
-3714 3715 0
17 -3714 3716 0
-3716 3717 0
20 -3716 3718 0
-3718 3719 0
23 -3718 3720 0
-3720 3721 0
26 -3720 0
14 3713 0
-3713 3722 0
17 -3713 3715 0
-3715 3723 0
20 -3715 3717 0
-3717 3724 0
23 -3717 3719 0
-3719 3725 0
26 -3719 3721 0
-3721 3726 0
29 -3721 0
17 3722 0
20 -3722 3723 0
23 -3723 3724 0
26 -3724 3725 0
29 -3725 3726 0
32 -3726 0
-12 3727 0
-3727 3728 0
-15 -3727 3729 0
-3729 3730 0
-18 -3729 3731 0
-3731 3732 0
-21 -3731 3733 0
-3733 3734 0
-24 -3733 3735 0
-3735 3736 0
-27 -3735 0
-15 3728 0
-3728 3737 0
-18 -3728 3730 0
-3730 3738 0
-21 -3730 3732 0
-3732 3739 0
-24 -3732 3734 0
-3734 3740 0
-27 -3734 3736 0
-3736 3741 0
-30 -3736 0
-18 3737 0
-21 -3737 3738 0
-24 -3738 3739 0
-27 -3739 3740 0
-30 -3740 3741 0
-33 -3741 0
12 3742 0
-3742 3743 0
15 -3742 3744 0
-3744 3745 0
18 -3744 3746 0
-3746 3747 0
21 -3746 3748 0
-3748 3749 0
24 -3748 3750 0
-3750 3751 0
27 -3750 0
15 3743 0
-3743 3752 0
18 -3743 3745 0
-3745 3753 0
21 -3745 3747 0
-3747 3754 0
24 -3747 3749 0
-3749 3755 0
27 -3749 3751 0
-3751 3756 0
30 -3751 0
18 3752 0
21 -3752 3753 0
24 -3753 3754 0
27 -3754 3755 0
30 -3755 3756 0
33 -3756 0
-13 3757 0
-3757 3758 0
-16 -3757 3759 0
-3759 3760 0
-19 -3759 3761 0
-3761 3762 0
-22 -3761 3763 0
-3763 3764 0
-25 -3763 3765 0
-3765 3766 0
-28 -3765 0
-16 3758 0
-3758 3767 0
-19 -3758 3760 0
-3760 3768 0
-22 -3760 3762 0
-3762 3769 0
-25 -3762 3764 0
-3764 3770 0
-28 -3764 3766 0
-3766 3771 0
-31 -3766 0
-19 3767 0
-22 -3767 3768 0
-25 -3768 3769 0
-28 -3769 3770 0
-31 -3770 3771 0
-34 -3771 0
13 3772 0
-3772 3773 0
16 -3772 3774 0
-3774 3775 0
19 -3774 3776 0
-3776 3777 0
22 -3776 3778 0
-3778 3779 0
25 -3778 3780 0
-3780 3781 0
28 -3780 0
16 3773 0
-3773 3782 0
19 -3773 3775 0
-3775 3783 0
22 -3775 3777 0
-3777 3784 0
25 -3777 3779 0
-3779 3785 0
28 -3779 3781 0
-3781 3786 0
31 -3781 0
19 3782 0
22 -3782 3783 0
25 -3783 3784 0
28 -3784 3785 0
31 -3785 3786 0
34 -3786 0
-14 3787 0
-3787 3788 0
-17 -3787 3789 0
-3789 3790 0
-20 -3789 3791 0
-3791 3792 0
-23 -3791 3793 0
-3793 3794 0
-26 -3793 3795 0
-3795 3796 0
-29 -3795 0
-17 3788 0
-3788 3797 0
-20 -3788 3790 0
-3790 3798 0
-23 -3790 3792 0
-3792 3799 0
-26 -3792 3794 0
-3794 3800 0
-29 -3794 3796 0
-3796 3801 0
-32 -3796 0
-20 3797 0
-23 -3797 3798 0
-26 -3798 3799 0
-29 -3799 3800 0
-32 -3800 3801 0
-35 -3801 0
14 3802 0
-3802 3803 0
17 -3802 3804 0
-3804 3805 0
20 -3804 3806 0
-3806 3807 0
23 -3806 3808 0
-3808 3809 0
26 -3808 3810 0
-3810 3811 0
29 -3810 0
17 3803 0
-3803 3812 0
20 -3803 3805 0
-3805 3813 0
23 -3805 3807 0
-3807 3814 0
26 -3807 3809 0
-3809 3815 0
29 -3809 3811 0
-3811 3816 0
32 -3811 0
20 3812 0
23 -3812 3813 0
26 -3813 3814 0
29 -3814 3815 0
32 -3815 3816 0
35 -3816 0
-15 3817 0
-3817 3818 0
-18 -3817 3819 0
-3819 3820 0
-21 -3819 3821 0
-3821 3822 0
-24 -3821 3823 0
-3823 3824 0
-27 -3823 3825 0
-3825 3826 0
-30 -3825 0
-18 3818 0
-3818 3827 0
-21 -3818 3820 0
-3820 3828 0
-24 -3820 3822 0
-3822 3829 0
-27 -3822 3824 0
-3824 3830 0
-30 -3824 3826 0
-3826 3831 0
-33 -3826 0
-21 3827 0
-24 -3827 3828 0
-27 -3828 3829 0
-30 -3829 3830 0
-33 -3830 3831 0
-36 -3831 0
15 3832 0
-3832 3833 0
18 -3832 3834 0
-3834 3835 0
21 -3834 3836 0
-3836 3837 0
24 -3836 3838 0
-3838 3839 0
27 -3838 3840 0
-3840 3841 0
30 -3840 0
18 3833 0
-3833 3842 0
21 -3833 3835 0
-3835 3843 0
24 -3835 3837 0
-3837 3844 0
27 -3837 3839 0
-3839 3845 0
30 -3839 3841 0
-3841 3846 0
33 -3841 0
21 3842 0
24 -3842 3843 0
27 -3843 3844 0
30 -3844 3845 0
33 -3845 3846 0
36 -3846 0
-16 3847 0
-3847 3848 0
-19 -3847 3849 0
-3849 3850 0
-22 -3849 3851 0
-3851 3852 0
-25 -3851 3853 0
-3853 3854 0
-28 -3853 3855 0
-3855 3856 0
-31 -3855 0
-19 3848 0
-3848 3857 0
-22 -3848 3850 0
-3850 3858 0
-25 -3850 3852 0
-3852 3859 0
-28 -3852 3854 0
-3854 3860 0
-31 -3854 3856 0
-3856 3861 0
-34 -3856 0
-22 3857 0
-25 -3857 3858 0
-28 -3858 3859 0
-31 -3859 3860 0
-34 -3860 3861 0
-37 -3861 0
16 3862 0
-3862 3863 0
19 -3862 3864 0
-3864 3865 0
22 -3864 3866 0
-3866 3867 0
25 -3866 3868 0
-3868 3869 0
28 -3868 3870 0
-3870 3871 0
31 -3870 0
19 3863 0
-3863 3872 0
22 -3863 3865 0
-3865 3873 0
25 -3865 3867 0
-3867 3874 0
28 -3867 3869 0
-3869 3875 0
31 -3869 3871 0
-3871 3876 0
34 -3871 0
22 3872 0
25 -3872 3873 0
28 -3873 3874 0
31 -3874 3875 0
34 -3875 3876 0
37 -3876 0
-17 3877 0
-3877 3878 0
-20 -3877 3879 0
-3879 3880 0
-23 -3879 3881 0
-3881 3882 0
-26 -3881 3883 0
-3883 3884 0
-29 -3883 3885 0
-3885 3886 0
-32 -3885 0
-20 3878 0
-3878 3887 0
-23 -3878 3880 0
-3880 3888 0
-26 -3880 3882 0
-3882 3889 0
-29 -3882 3884 0
-3884 3890 0
-32 -3884 3886 0
-3886 3891 0
-35 -3886 0
-23 3887 0
-26 -3887 3888 0
-29 -3888 3889 0
-32 -3889 3890 0
-35 -3890 3891 0
-38 -3891 0
17 3892 0
-3892 3893 0
20 -3892 3894 0
-3894 3895 0
23 -3894 3896 0
-3896 3897 0
26 -3896 3898 0
-3898 3899 0
29 -3898 3900 0
-3900 3901 0
32 -3900 0
20 3893 0
-3893 3902 0
23 -3893 3895 0
-3895 3903 0
26 -3895 3897 0
-3897 3904 0
29 -3897 3899 0
-3899 3905 0
32 -3899 3901 0
-3901 3906 0
35 -3901 0
23 3902 0
26 -3902 3903 0
29 -3903 3904 0
32 -3904 3905 0
35 -3905 3906 0
38 -3906 0
-18 3907 0
-3907 3908 0
-21 -3907 3909 0
-3909 3910 0
-24 -3909 3911 0
-3911 3912 0
-27 -3911 3913 0
-3913 3914 0
-30 -3913 3915 0
-3915 3916 0
-33 -3915 0
-21 3908 0
-3908 3917 0
-24 -3908 3910 0
-3910 3918 0
-27 -3910 3912 0
-3912 3919 0
-30 -3912 3914 0
-3914 3920 0
-33 -3914 3916 0
-3916 3921 0
-36 -3916 0
-24 3917 0
-27 -3917 3918 0
-30 -3918 3919 0
-33 -3919 3920 0
-36 -3920 3921 0
-39 -3921 0
18 3922 0
-3922 3923 0
21 -3922 3924 0
-3924 3925 0
24 -3924 3926 0
-3926 3927 0
27 -3926 3928 0
-3928 3929 0
30 -3928 3930 0
-3930 3931 0
33 -3930 0
21 3923 0
-3923 3932 0
24 -3923 3925 0
-3925 3933 0
27 -3925 3927 0
-3927 3934 0
30 -3927 3929 0
-3929 3935 0
33 -3929 3931 0
-3931 3936 0
36 -3931 0
24 3932 0
27 -3932 3933 0
30 -3933 3934 0
33 -3934 3935 0
36 -3935 3936 0
39 -3936 0
-19 3937 0
-3937 3938 0
-22 -3937 3939 0
-3939 3940 0
-25 -3939 3941 0
-3941 3942 0
-28 -3941 3943 0
-3943 3944 0
-31 -3943 3945 0
-3945 3946 0
-34 -3945 0
-22 3938 0
-3938 3947 0
-25 -3938 3940 0
-3940 3948 0
-28 -3940 3942 0
-3942 3949 0
-31 -3942 3944 0
-3944 3950 0
-34 -3944 3946 0
-3946 3951 0
-37 -3946 0
-25 3947 0
-28 -3947 3948 0
-31 -3948 3949 0
-34 -3949 3950 0
-37 -3950 3951 0
-40 -3951 0
19 3952 0
-3952 3953 0
22 -3952 3954 0
-3954 3955 0
25 -3954 3956 0
-3956 3957 0
28 -3956 3958 0
-3958 3959 0
31 -3958 3960 0
-3960 3961 0
34 -3960 0
22 3953 0
-3953 3962 0
25 -3953 3955 0
-3955 3963 0
28 -3955 3957 0
-3957 3964 0
31 -3957 3959 0
-3959 3965 0
34 -3959 3961 0
-3961 3966 0
37 -3961 0
25 3962 0
28 -3962 3963 0
31 -3963 3964 0
34 -3964 3965 0
37 -3965 3966 0
40 -3966 0
-20 3967 0
-3967 3968 0
-23 -3967 3969 0
-3969 3970 0
-26 -3969 3971 0
-3971 3972 0
-29 -3971 3973 0
-3973 3974 0
-32 -3973 3975 0
-3975 3976 0
-35 -3975 0
-23 3968 0
-3968 3977 0
-26 -3968 3970 0
-3970 3978 0
-29 -3970 3972 0
-3972 3979 0
-32 -3972 3974 0
-3974 3980 0
-35 -3974 3976 0
-3976 3981 0
-38 -3976 0
-26 3977 0
-29 -3977 3978 0
-32 -3978 3979 0
-35 -3979 3980 0
-38 -3980 3981 0
-41 -3981 0
20 3982 0
-3982 3983 0
23 -3982 3984 0
-3984 3985 0
26 -3984 3986 0
-3986 3987 0
29 -3986 3988 0
-3988 3989 0
32 -3988 3990 0
-3990 3991 0
35 -3990 0
23 3983 0
-3983 3992 0
26 -3983 3985 0
-3985 3993 0
29 -3985 3987 0
-3987 3994 0
32 -3987 3989 0
-3989 3995 0
35 -3989 3991 0
-3991 3996 0
38 -3991 0
26 3992 0
29 -3992 3993 0
32 -3993 3994 0
35 -3994 3995 0
38 -3995 3996 0
41 -3996 0
-21 3997 0
-3997 3998 0
-24 -3997 3999 0
-3999 4000 0
-27 -3999 4001 0
-4001 4002 0
-30 -4001 4003 0
-4003 4004 0
-33 -4003 4005 0
-4005 4006 0
-36 -4005 0
-24 3998 0
-3998 4007 0
-27 -3998 4000 0
-4000 4008 0
-30 -4000 4002 0
-4002 4009 0
-33 -4002 4004 0
-4004 4010 0
-36 -4004 4006 0
-4006 4011 0
-39 -4006 0
-27 4007 0
-30 -4007 4008 0
-33 -4008 4009 0
-36 -4009 4010 0
-39 -4010 4011 0
-42 -4011 0
21 4012 0
-4012 4013 0
24 -4012 4014 0
-4014 4015 0
27 -4014 4016 0
-4016 4017 0
30 -4016 4018 0
-4018 4019 0
33 -4018 4020 0
-4020 4021 0
36 -4020 0
24 4013 0
-4013 4022 0
27 -4013 4015 0
-4015 4023 0
30 -4015 4017 0
-4017 4024 0
33 -4017 4019 0
-4019 4025 0
36 -4019 4021 0
-4021 4026 0
39 -4021 0
27 4022 0
30 -4022 4023 0
33 -4023 4024 0
36 -4024 4025 0
39 -4025 4026 0
42 -4026 0
-22 4027 0
-4027 4028 0
-25 -4027 4029 0
-4029 4030 0
-28 -4029 4031 0
-4031 4032 0
-31 -4031 4033 0
-4033 4034 0
-34 -4033 4035 0
-4035 4036 0
-37 -4035 0
-25 4028 0
-4028 4037 0
-28 -4028 4030 0
-4030 4038 0
-31 -4030 4032 0
-4032 4039 0
-34 -4032 4034 0
-4034 4040 0
-37 -4034 4036 0
-4036 4041 0
-40 -4036 0
-28 4037 0
-31 -4037 4038 0
-34 -4038 4039 0
-37 -4039 4040 0
-40 -4040 4041 0
-43 -4041 0
22 4042 0
-4042 4043 0
25 -4042 4044 0
-4044 4045 0
28 -4044 4046 0
-4046 4047 0
31 -4046 4048 0
-4048 4049 0
34 -4048 4050 0
-4050 4051 0
37 -4050 0
25 4043 0
-4043 4052 0
28 -4043 4045 0
-4045 4053 0
31 -4045 4047 0
-4047 4054 0
34 -4047 4049 0
-4049 4055 0
37 -4049 4051 0
-4051 4056 0
40 -4051 0
28 4052 0
31 -4052 4053 0
34 -4053 4054 0
37 -4054 4055 0
40 -4055 4056 0
43 -4056 0
-23 4057 0
-4057 4058 0
-26 -4057 4059 0
-4059 4060 0
-29 -4059 4061 0
-4061 4062 0
-32 -4061 4063 0
-4063 4064 0
-35 -4063 4065 0
-4065 4066 0
-38 -4065 0
-26 4058 0
-4058 4067 0
-29 -4058 4060 0
-4060 4068 0
-32 -4060 4062 0
-4062 4069 0
-35 -4062 4064 0
-4064 4070 0
-38 -4064 4066 0
-4066 4071 0
-41 -4066 0
-29 4067 0
-32 -4067 4068 0
-35 -4068 4069 0
-38 -4069 4070 0
-41 -4070 4071 0
-44 -4071 0
23 4072 0
-4072 4073 0
26 -4072 4074 0
-4074 4075 0
29 -4074 4076 0
-4076 4077 0
32 -4076 4078 0
-4078 4079 0
35 -4078 4080 0
-4080 4081 0
38 -4080 0
26 4073 0
-4073 4082 0
29 -4073 4075 0
-4075 4083 0
32 -4075 4077 0
-4077 4084 0
35 -4077 4079 0
-4079 4085 0
38 -4079 4081 0
-4081 4086 0
41 -4081 0
29 4082 0
32 -4082 4083 0
35 -4083 4084 0
38 -4084 4085 0
41 -4085 4086 0
44 -4086 0
-24 4087 0
-4087 4088 0
-27 -4087 4089 0
-4089 4090 0
-30 -4089 4091 0
-4091 4092 0
-33 -4091 4093 0
-4093 4094 0
-36 -4093 4095 0
-4095 4096 0
-39 -4095 0
-27 4088 0
-4088 4097 0
-30 -4088 4090 0
-4090 4098 0
-33 -4090 4092 0
-4092 4099 0
-36 -4092 4094 0
-4094 4100 0
-39 -4094 4096 0
-4096 4101 0
-42 -4096 0
-30 4097 0
-33 -4097 4098 0
-36 -4098 4099 0
-39 -4099 4100 0
-42 -4100 4101 0
-45 -4101 0
24 4102 0
-4102 4103 0
27 -4102 4104 0
-4104 4105 0
30 -4104 4106 0
-4106 4107 0
33 -4106 4108 0
-4108 4109 0
36 -4108 4110 0
-4110 4111 0
39 -4110 0
27 4103 0
-4103 4112 0
30 -4103 4105 0
-4105 4113 0
33 -4105 4107 0
-4107 4114 0
36 -4107 4109 0
-4109 4115 0
39 -4109 4111 0
-4111 4116 0
42 -4111 0
30 4112 0
33 -4112 4113 0
36 -4113 4114 0
39 -4114 4115 0
42 -4115 4116 0
45 -4116 0
-25 4117 0
-4117 4118 0
-28 -4117 4119 0
-4119 4120 0
-31 -4119 4121 0
-4121 4122 0
-34 -4121 4123 0
-4123 4124 0
-37 -4123 4125 0
-4125 4126 0
-40 -4125 0
-28 4118 0
-4118 4127 0
-31 -4118 4120 0
-4120 4128 0
-34 -4120 4122 0
-4122 4129 0
-37 -4122 4124 0
-4124 4130 0
-40 -4124 4126 0
-4126 4131 0
-43 -4126 0
-31 4127 0
-34 -4127 4128 0
-37 -4128 4129 0
-40 -4129 4130 0
-43 -4130 4131 0
-46 -4131 0
25 4132 0
-4132 4133 0
28 -4132 4134 0
-4134 4135 0
31 -4134 4136 0
-4136 4137 0
34 -4136 4138 0
-4138 4139 0
37 -4138 4140 0
-4140 4141 0
40 -4140 0
28 4133 0
-4133 4142 0
31 -4133 4135 0
-4135 4143 0
34 -4135 4137 0
-4137 4144 0
37 -4137 4139 0
-4139 4145 0
40 -4139 4141 0
-4141 4146 0
43 -4141 0
31 4142 0
34 -4142 4143 0
37 -4143 4144 0
40 -4144 4145 0
43 -4145 4146 0
46 -4146 0
-26 4147 0
-4147 4148 0
-29 -4147 4149 0
-4149 4150 0
-32 -4149 4151 0
-4151 4152 0
-35 -4151 4153 0
-4153 4154 0
-38 -4153 4155 0
-4155 4156 0
-41 -4155 0
-29 4148 0
-4148 4157 0
-32 -4148 4150 0
-4150 4158 0
-35 -4150 4152 0
-4152 4159 0
-38 -4152 4154 0
-4154 4160 0
-41 -4154 4156 0
-4156 4161 0
-44 -4156 0
-32 4157 0
-35 -4157 4158 0
-38 -4158 4159 0
-41 -4159 4160 0
-44 -4160 4161 0
-47 -4161 0
26 4162 0
-4162 4163 0
29 -4162 4164 0
-4164 4165 0
32 -4164 4166 0
-4166 4167 0
35 -4166 4168 0
-4168 4169 0
38 -4168 4170 0
-4170 4171 0
41 -4170 0
29 4163 0
-4163 4172 0
32 -4163 4165 0
-4165 4173 0
35 -4165 4167 0
-4167 4174 0
38 -4167 4169 0
-4169 4175 0
41 -4169 4171 0
-4171 4176 0
44 -4171 0
32 4172 0
35 -4172 4173 0
38 -4173 4174 0
41 -4174 4175 0
44 -4175 4176 0
47 -4176 0
-27 4177 0
-4177 4178 0
-30 -4177 4179 0
-4179 4180 0
-33 -4179 4181 0
-4181 4182 0
-36 -4181 4183 0
-4183 4184 0
-39 -4183 4185 0
-4185 4186 0
-42 -4185 0
-30 4178 0
-4178 4187 0
-33 -4178 4180 0
-4180 4188 0
-36 -4180 4182 0
-4182 4189 0
-39 -4182 4184 0
-4184 4190 0
-42 -4184 4186 0
-4186 4191 0
-45 -4186 0
-33 4187 0
-36 -4187 4188 0
-39 -4188 4189 0
-42 -4189 4190 0
-45 -4190 4191 0
-48 -4191 0
27 4192 0
-4192 4193 0
30 -4192 4194 0
-4194 4195 0
33 -4194 4196 0
-4196 4197 0
36 -4196 4198 0
-4198 4199 0
39 -4198 4200 0
-4200 4201 0
42 -4200 0
30 4193 0
-4193 4202 0
33 -4193 4195 0
-4195 4203 0
36 -4195 4197 0
-4197 4204 0
39 -4197 4199 0
-4199 4205 0
42 -4199 4201 0
-4201 4206 0
45 -4201 0
33 4202 0
36 -4202 4203 0
39 -4203 4204 0
42 -4204 4205 0
45 -4205 4206 0
48 -4206 0
-28 4207 0
-4207 4208 0
-31 -4207 4209 0
-4209 4210 0
-34 -4209 4211 0
-4211 4212 0
-37 -4211 4213 0
-4213 4214 0
-40 -4213 4215 0
-4215 4216 0
-43 -4215 0
-31 4208 0
-4208 4217 0
-34 -4208 4210 0
-4210 4218 0
-37 -4210 4212 0
-4212 4219 0
-40 -4212 4214 0
-4214 4220 0
-43 -4214 4216 0
-4216 4221 0
-46 -4216 0
-34 4217 0
-37 -4217 4218 0
-40 -4218 4219 0
-43 -4219 4220 0
-46 -4220 4221 0
-49 -4221 0
28 4222 0
-4222 4223 0
31 -4222 4224 0
-4224 4225 0
34 -4224 4226 0
-4226 4227 0
37 -4226 4228 0
-4228 4229 0
40 -4228 4230 0
-4230 4231 0
43 -4230 0
31 4223 0
-4223 4232 0
34 -4223 4225 0
-4225 4233 0
37 -4225 4227 0
-4227 4234 0
40 -4227 4229 0
-4229 4235 0
43 -4229 4231 0
-4231 4236 0
46 -4231 0
34 4232 0
37 -4232 4233 0
40 -4233 4234 0
43 -4234 4235 0
46 -4235 4236 0
49 -4236 0
-29 4237 0
-4237 4238 0
-32 -4237 4239 0
-4239 4240 0
-35 -4239 4241 0
-4241 4242 0
-38 -4241 4243 0
-4243 4244 0
-41 -4243 4245 0
-4245 4246 0
-44 -4245 0
-32 4238 0
-4238 4247 0
-35 -4238 4240 0
-4240 4248 0
-38 -4240 4242 0
-4242 4249 0
-41 -4242 4244 0
-4244 4250 0
-44 -4244 4246 0
-4246 4251 0
-47 -4246 0
-35 4247 0
-38 -4247 4248 0
-41 -4248 4249 0
-44 -4249 4250 0
-47 -4250 4251 0
-50 -4251 0
29 4252 0
-4252 4253 0
32 -4252 4254 0
-4254 4255 0
35 -4254 4256 0
-4256 4257 0
38 -4256 4258 0
-4258 4259 0
41 -4258 4260 0
-4260 4261 0
44 -4260 0
32 4253 0
-4253 4262 0
35 -4253 4255 0
-4255 4263 0
38 -4255 4257 0
-4257 4264 0
41 -4257 4259 0
-4259 4265 0
44 -4259 4261 0
-4261 4266 0
47 -4261 0
35 4262 0
38 -4262 4263 0
41 -4263 4264 0
44 -4264 4265 0
47 -4265 4266 0
50 -4266 0
-30 4267 0
-4267 4268 0
-33 -4267 4269 0
-4269 4270 0
-36 -4269 4271 0
-4271 4272 0
-39 -4271 4273 0
-4273 4274 0
-42 -4273 4275 0
-4275 4276 0
-45 -4275 0
-33 4268 0
-4268 4277 0
-36 -4268 4270 0
-4270 4278 0
-39 -4270 4272 0
-4272 4279 0
-42 -4272 4274 0
-4274 4280 0
-45 -4274 4276 0
-4276 4281 0
-48 -4276 0
-36 4277 0
-39 -4277 4278 0
-42 -4278 4279 0
-45 -4279 4280 0
-48 -4280 4281 0
-51 -4281 0
30 4282 0
-4282 4283 0
33 -4282 4284 0
-4284 4285 0
36 -4284 4286 0
-4286 4287 0
39 -4286 4288 0
-4288 4289 0
42 -4288 4290 0
-4290 4291 0
45 -4290 0
33 4283 0
-4283 4292 0
36 -4283 4285 0
-4285 4293 0
39 -4285 4287 0
-4287 4294 0
42 -4287 4289 0
-4289 4295 0
45 -4289 4291 0
-4291 4296 0
48 -4291 0
36 4292 0
39 -4292 4293 0
42 -4293 4294 0
45 -4294 4295 0
48 -4295 4296 0
51 -4296 0
-31 4297 0
-4297 4298 0
-34 -4297 4299 0
-4299 4300 0
-37 -4299 4301 0
-4301 4302 0
-40 -4301 4303 0
-4303 4304 0
-43 -4303 4305 0
-4305 4306 0
-46 -4305 0
-34 4298 0
-4298 4307 0
-37 -4298 4300 0
-4300 4308 0
-40 -4300 4302 0
-4302 4309 0
-43 -4302 4304 0
-4304 4310 0
-46 -4304 4306 0
-4306 4311 0
-49 -4306 0
-37 4307 0
-40 -4307 4308 0
-43 -4308 4309 0
-46 -4309 4310 0
-49 -4310 4311 0
-52 -4311 0
31 4312 0
-4312 4313 0
34 -4312 4314 0
-4314 4315 0
37 -4314 4316 0
-4316 4317 0
40 -4316 4318 0
-4318 4319 0
43 -4318 4320 0
-4320 4321 0
46 -4320 0
34 4313 0
-4313 4322 0
37 -4313 4315 0
-4315 4323 0
40 -4315 4317 0
-4317 4324 0
43 -4317 4319 0
-4319 4325 0
46 -4319 4321 0
-4321 4326 0
49 -4321 0
37 4322 0
40 -4322 4323 0
43 -4323 4324 0
46 -4324 4325 0
49 -4325 4326 0
52 -4326 0
-32 4327 0
-4327 4328 0
-35 -4327 4329 0
-4329 4330 0
-38 -4329 4331 0
-4331 4332 0
-41 -4331 4333 0
-4333 4334 0
-44 -4333 4335 0
-4335 4336 0
-47 -4335 0
-35 4328 0
-4328 4337 0
-38 -4328 4330 0
-4330 4338 0
-41 -4330 4332 0
-4332 4339 0
-44 -4332 4334 0
-4334 4340 0
-47 -4334 4336 0
-4336 4341 0
-50 -4336 0
-38 4337 0
-41 -4337 4338 0
-44 -4338 4339 0
-47 -4339 4340 0
-50 -4340 4341 0
-53 -4341 0
32 4342 0
-4342 4343 0
35 -4342 4344 0
-4344 4345 0
38 -4344 4346 0
-4346 4347 0
41 -4346 4348 0
-4348 4349 0
44 -4348 4350 0
-4350 4351 0
47 -4350 0
35 4343 0
-4343 4352 0
38 -4343 4345 0
-4345 4353 0
41 -4345 4347 0
-4347 4354 0
44 -4347 4349 0
-4349 4355 0
47 -4349 4351 0
-4351 4356 0
50 -4351 0
38 4352 0
41 -4352 4353 0
44 -4353 4354 0
47 -4354 4355 0
50 -4355 4356 0
53 -4356 0
-33 4357 0
-4357 4358 0
-36 -4357 4359 0
-4359 4360 0
-39 -4359 4361 0
-4361 4362 0
-42 -4361 4363 0
-4363 4364 0
-45 -4363 4365 0
-4365 4366 0
-48 -4365 0
-36 4358 0
-4358 4367 0
-39 -4358 4360 0
-4360 4368 0
-42 -4360 4362 0
-4362 4369 0
-45 -4362 4364 0
-4364 4370 0
-48 -4364 4366 0
-4366 4371 0
-51 -4366 0
-39 4367 0
-42 -4367 4368 0
-45 -4368 4369 0
-48 -4369 4370 0
-51 -4370 4371 0
-54 -4371 0
33 4372 0
-4372 4373 0
36 -4372 4374 0
-4374 4375 0
39 -4374 4376 0
-4376 4377 0
42 -4376 4378 0
-4378 4379 0
45 -4378 4380 0
-4380 4381 0
48 -4380 0
36 4373 0
-4373 4382 0
39 -4373 4375 0
-4375 4383 0
42 -4375 4377 0
-4377 4384 0
45 -4377 4379 0
-4379 4385 0
48 -4379 4381 0
-4381 4386 0
51 -4381 0
39 4382 0
42 -4382 4383 0
45 -4383 4384 0
48 -4384 4385 0
51 -4385 4386 0
54 -4386 0
-34 4387 0
-4387 4388 0
-37 -4387 4389 0
-4389 4390 0
-40 -4389 4391 0
-4391 4392 0
-43 -4391 4393 0
-4393 4394 0
-46 -4393 4395 0
-4395 4396 0
-49 -4395 0
-37 4388 0
-4388 4397 0
-40 -4388 4390 0
-4390 4398 0
-43 -4390 4392 0
-4392 4399 0
-46 -4392 4394 0
-4394 4400 0
-49 -4394 4396 0
-4396 4401 0
-52 -4396 0
-40 4397 0
-43 -4397 4398 0
-46 -4398 4399 0
-49 -4399 4400 0
-52 -4400 4401 0
-55 -4401 0
34 4402 0
-4402 4403 0
37 -4402 4404 0
-4404 4405 0
40 -4404 4406 0
-4406 4407 0
43 -4406 4408 0
-4408 4409 0
46 -4408 4410 0
-4410 4411 0
49 -4410 0
37 4403 0
-4403 4412 0
40 -4403 4405 0
-4405 4413 0
43 -4405 4407 0
-4407 4414 0
46 -4407 4409 0
-4409 4415 0
49 -4409 4411 0
-4411 4416 0
52 -4411 0
40 4412 0
43 -4412 4413 0
46 -4413 4414 0
49 -4414 4415 0
52 -4415 4416 0
55 -4416 0
-35 4417 0
-4417 4418 0
-38 -4417 4419 0
-4419 4420 0
-41 -4419 4421 0
-4421 4422 0
-44 -4421 4423 0
-4423 4424 0
-47 -4423 4425 0
-4425 4426 0
-50 -4425 0
-38 4418 0
-4418 4427 0
-41 -4418 4420 0
-4420 4428 0
-44 -4420 4422 0
-4422 4429 0
-47 -4422 4424 0
-4424 4430 0
-50 -4424 4426 0
-4426 4431 0
-53 -4426 0
-41 4427 0
-44 -4427 4428 0
-47 -4428 4429 0
-50 -4429 4430 0
-53 -4430 4431 0
-56 -4431 0
35 4432 0
-4432 4433 0
38 -4432 4434 0
-4434 4435 0
41 -4434 4436 0
-4436 4437 0
44 -4436 4438 0
-4438 4439 0
47 -4438 4440 0
-4440 4441 0
50 -4440 0
38 4433 0
-4433 4442 0
41 -4433 4435 0
-4435 4443 0
44 -4435 4437 0
-4437 4444 0
47 -4437 4439 0
-4439 4445 0
50 -4439 4441 0
-4441 4446 0
53 -4441 0
41 4442 0
44 -4442 4443 0
47 -4443 4444 0
50 -4444 4445 0
53 -4445 4446 0
56 -4446 0
-36 4447 0
-4447 4448 0
-39 -4447 4449 0
-4449 4450 0
-42 -4449 4451 0
-4451 4452 0
-45 -4451 4453 0
-4453 4454 0
-48 -4453 4455 0
-4455 4456 0
-51 -4455 0
-39 4448 0
-4448 4457 0
-42 -4448 4450 0
-4450 4458 0
-45 -4450 4452 0
-4452 4459 0
-48 -4452 4454 0
-4454 4460 0
-51 -4454 4456 0
-4456 4461 0
-54 -4456 0
-42 4457 0
-45 -4457 4458 0
-48 -4458 4459 0
-51 -4459 4460 0
-54 -4460 4461 0
-57 -4461 0
36 4462 0
-4462 4463 0
39 -4462 4464 0
-4464 4465 0
42 -4464 4466 0
-4466 4467 0
45 -4466 4468 0
-4468 4469 0
48 -4468 4470 0
-4470 4471 0
51 -4470 0
39 4463 0
-4463 4472 0
42 -4463 4465 0
-4465 4473 0
45 -4465 4467 0
-4467 4474 0
48 -4467 4469 0
-4469 4475 0
51 -4469 4471 0
-4471 4476 0
54 -4471 0
42 4472 0
45 -4472 4473 0
48 -4473 4474 0
51 -4474 4475 0
54 -4475 4476 0
57 -4476 0
-37 4477 0
-4477 4478 0
-40 -4477 4479 0
-4479 4480 0
-43 -4479 4481 0
-4481 4482 0
-46 -4481 4483 0
-4483 4484 0
-49 -4483 4485 0
-4485 4486 0
-52 -4485 0
-40 4478 0
-4478 4487 0
-43 -4478 4480 0
-4480 4488 0
-46 -4480 4482 0
-4482 4489 0
-49 -4482 4484 0
-4484 4490 0
-52 -4484 4486 0
-4486 4491 0
-55 -4486 0
-43 4487 0
-46 -4487 4488 0
-49 -4488 4489 0
-52 -4489 4490 0
-55 -4490 4491 0
-58 -4491 0
37 4492 0
-4492 4493 0
40 -4492 4494 0
-4494 4495 0
43 -4494 4496 0
-4496 4497 0
46 -4496 4498 0
-4498 4499 0
49 -4498 4500 0
-4500 4501 0
52 -4500 0
40 4493 0
-4493 4502 0
43 -4493 4495 0
-4495 4503 0
46 -4495 4497 0
-4497 4504 0
49 -4497 4499 0
-4499 4505 0
52 -4499 4501 0
-4501 4506 0
55 -4501 0
43 4502 0
46 -4502 4503 0
49 -4503 4504 0
52 -4504 4505 0
55 -4505 4506 0
58 -4506 0
-38 4507 0
-4507 4508 0
-41 -4507 4509 0
-4509 4510 0
-44 -4509 4511 0
-4511 4512 0
-47 -4511 4513 0
-4513 4514 0
-50 -4513 4515 0
-4515 4516 0
-53 -4515 0
-41 4508 0
-4508 4517 0
-44 -4508 4510 0
-4510 4518 0
-47 -4510 4512 0
-4512 4519 0
-50 -4512 4514 0
-4514 4520 0
-53 -4514 4516 0
-4516 4521 0
-56 -4516 0
-44 4517 0
-47 -4517 4518 0
-50 -4518 4519 0
-53 -4519 4520 0
-56 -4520 4521 0
-59 -4521 0
38 4522 0
-4522 4523 0
41 -4522 4524 0
-4524 4525 0
44 -4524 4526 0
-4526 4527 0
47 -4526 4528 0
-4528 4529 0
50 -4528 4530 0
-4530 4531 0
53 -4530 0
41 4523 0
-4523 4532 0
44 -4523 4525 0
-4525 4533 0
47 -4525 4527 0
-4527 4534 0
50 -4527 4529 0
-4529 4535 0
53 -4529 4531 0
-4531 4536 0
56 -4531 0
44 4532 0
47 -4532 4533 0
50 -4533 4534 0
53 -4534 4535 0
56 -4535 4536 0
59 -4536 0
-39 4537 0
-4537 4538 0
-42 -4537 4539 0
-4539 4540 0
-45 -4539 4541 0
-4541 4542 0
-48 -4541 4543 0
-4543 4544 0
-51 -4543 4545 0
-4545 4546 0
-54 -4545 0
-42 4538 0
-4538 4547 0
-45 -4538 4540 0
-4540 4548 0
-48 -4540 4542 0
-4542 4549 0
-51 -4542 4544 0
-4544 4550 0
-54 -4544 4546 0
-4546 4551 0
-57 -4546 0
-45 4547 0
-48 -4547 4548 0
-51 -4548 4549 0
-54 -4549 4550 0
-57 -4550 4551 0
-60 -4551 0
39 4552 0
-4552 4553 0
42 -4552 4554 0
-4554 4555 0
45 -4554 4556 0
-4556 4557 0
48 -4556 4558 0
-4558 4559 0
51 -4558 4560 0
-4560 4561 0
54 -4560 0
42 4553 0
-4553 4562 0
45 -4553 4555 0
-4555 4563 0
48 -4555 4557 0
-4557 4564 0
51 -4557 4559 0
-4559 4565 0
54 -4559 4561 0
-4561 4566 0
57 -4561 0
45 4562 0
48 -4562 4563 0
51 -4563 4564 0
54 -4564 4565 0
57 -4565 4566 0
60 -4566 0
-40 4567 0
-4567 4568 0
-43 -4567 4569 0
-4569 4570 0
-46 -4569 4571 0
-4571 4572 0
-49 -4571 4573 0
-4573 4574 0
-52 -4573 4575 0
-4575 4576 0
-55 -4575 0
-43 4568 0
-4568 4577 0
-46 -4568 4570 0
-4570 4578 0
-49 -4570 4572 0
-4572 4579 0
-52 -4572 4574 0
-4574 4580 0
-55 -4574 4576 0
-4576 4581 0
-58 -4576 0
-46 4577 0
-49 -4577 4578 0
-52 -4578 4579 0
-55 -4579 4580 0
-58 -4580 4581 0
-61 -4581 0
40 4582 0
-4582 4583 0
43 -4582 4584 0
-4584 4585 0
46 -4584 4586 0
-4586 4587 0
49 -4586 4588 0
-4588 4589 0
52 -4588 4590 0
-4590 4591 0
55 -4590 0
43 4583 0
-4583 4592 0
46 -4583 4585 0
-4585 4593 0
49 -4585 4587 0
-4587 4594 0
52 -4587 4589 0
-4589 4595 0
55 -4589 4591 0
-4591 4596 0
58 -4591 0
46 4592 0
49 -4592 4593 0
52 -4593 4594 0
55 -4594 4595 0
58 -4595 4596 0
61 -4596 0
-41 4597 0
-4597 4598 0
-44 -4597 4599 0
-4599 4600 0
-47 -4599 4601 0
-4601 4602 0
-50 -4601 4603 0
-4603 4604 0
-53 -4603 4605 0
-4605 4606 0
-56 -4605 0
-44 4598 0
-4598 4607 0
-47 -4598 4600 0
-4600 4608 0
-50 -4600 4602 0
-4602 4609 0
-53 -4602 4604 0
-4604 4610 0
-56 -4604 4606 0
-4606 4611 0
-59 -4606 0
-47 4607 0
-50 -4607 4608 0
-53 -4608 4609 0
-56 -4609 4610 0
-59 -4610 4611 0
-62 -4611 0
41 4612 0
-4612 4613 0
44 -4612 4614 0
-4614 4615 0
47 -4614 4616 0
-4616 4617 0
50 -4616 4618 0
-4618 4619 0
53 -4618 4620 0
-4620 4621 0
56 -4620 0
44 4613 0
-4613 4622 0
47 -4613 4615 0
-4615 4623 0
50 -4615 4617 0
-4617 4624 0
53 -4617 4619 0
-4619 4625 0
56 -4619 4621 0
-4621 4626 0
59 -4621 0
47 4622 0
50 -4622 4623 0
53 -4623 4624 0
56 -4624 4625 0
59 -4625 4626 0
62 -4626 0
-42 4627 0
-4627 4628 0
-45 -4627 4629 0
-4629 4630 0
-48 -4629 4631 0
-4631 4632 0
-51 -4631 4633 0
-4633 4634 0
-54 -4633 4635 0
-4635 4636 0
-57 -4635 0
-45 4628 0
-4628 4637 0
-48 -4628 4630 0
-4630 4638 0
-51 -4630 4632 0
-4632 4639 0
-54 -4632 4634 0
-4634 4640 0
-57 -4634 4636 0
-4636 4641 0
-60 -4636 0
-48 4637 0
-51 -4637 4638 0
-54 -4638 4639 0
-57 -4639 4640 0
-60 -4640 4641 0
-63 -4641 0
42 4642 0
-4642 4643 0
45 -4642 4644 0
-4644 4645 0
48 -4644 4646 0
-4646 4647 0
51 -4646 4648 0
-4648 4649 0
54 -4648 4650 0
-4650 4651 0
57 -4650 0
45 4643 0
-4643 4652 0
48 -4643 4645 0
-4645 4653 0
51 -4645 4647 0
-4647 4654 0
54 -4647 4649 0
-4649 4655 0
57 -4649 4651 0
-4651 4656 0
60 -4651 0
48 4652 0
51 -4652 4653 0
54 -4653 4654 0
57 -4654 4655 0
60 -4655 4656 0
63 -4656 0
-43 4657 0
-4657 4658 0
-46 -4657 4659 0
-4659 4660 0
-49 -4659 4661 0
-4661 4662 0
-52 -4661 4663 0
-4663 4664 0
-55 -4663 4665 0
-4665 4666 0
-58 -4665 0
-46 4658 0
-4658 4667 0
-49 -4658 4660 0
-4660 4668 0
-52 -4660 4662 0
-4662 4669 0
-55 -4662 4664 0
-4664 4670 0
-58 -4664 4666 0
-4666 4671 0
-61 -4666 0
-49 4667 0
-52 -4667 4668 0
-55 -4668 4669 0
-58 -4669 4670 0
-61 -4670 4671 0
-64 -4671 0
43 4672 0
-4672 4673 0
46 -4672 4674 0
-4674 4675 0
49 -4674 4676 0
-4676 4677 0
52 -4676 4678 0
-4678 4679 0
55 -4678 4680 0
-4680 4681 0
58 -4680 0
46 4673 0
-4673 4682 0
49 -4673 4675 0
-4675 4683 0
52 -4675 4677 0
-4677 4684 0
55 -4677 4679 0
-4679 4685 0
58 -4679 4681 0
-4681 4686 0
61 -4681 0
49 4682 0
52 -4682 4683 0
55 -4683 4684 0
58 -4684 4685 0
61 -4685 4686 0
64 -4686 0
-44 4687 0
-4687 4688 0
-47 -4687 4689 0
-4689 4690 0
-50 -4689 4691 0
-4691 4692 0
-53 -4691 4693 0
-4693 4694 0
-56 -4693 4695 0
-4695 4696 0
-59 -4695 0
-47 4688 0
-4688 4697 0
-50 -4688 4690 0
-4690 4698 0
-53 -4690 4692 0
-4692 4699 0
-56 -4692 4694 0
-4694 4700 0
-59 -4694 4696 0
-4696 4701 0
-62 -4696 0
-50 4697 0
-53 -4697 4698 0
-56 -4698 4699 0
-59 -4699 4700 0
-62 -4700 4701 0
-65 -4701 0
44 4702 0
-4702 4703 0
47 -4702 4704 0
-4704 4705 0
50 -4704 4706 0
-4706 4707 0
53 -4706 4708 0
-4708 4709 0
56 -4708 4710 0
-4710 4711 0
59 -4710 0
47 4703 0
-4703 4712 0
50 -4703 4705 0
-4705 4713 0
53 -4705 4707 0
-4707 4714 0
56 -4707 4709 0
-4709 4715 0
59 -4709 4711 0
-4711 4716 0
62 -4711 0
50 4712 0
53 -4712 4713 0
56 -4713 4714 0
59 -4714 4715 0
62 -4715 4716 0
65 -4716 0
-45 4717 0
-4717 4718 0
-48 -4717 4719 0
-4719 4720 0
-51 -4719 4721 0
-4721 4722 0
-54 -4721 4723 0
-4723 4724 0
-57 -4723 4725 0
-4725 4726 0
-60 -4725 0
-48 4718 0
-4718 4727 0
-51 -4718 4720 0
-4720 4728 0
-54 -4720 4722 0
-4722 4729 0
-57 -4722 4724 0
-4724 4730 0
-60 -4724 4726 0
-4726 4731 0
-63 -4726 0
-51 4727 0
-54 -4727 4728 0
-57 -4728 4729 0
-60 -4729 4730 0
-63 -4730 4731 0
-66 -4731 0
45 4732 0
-4732 4733 0
48 -4732 4734 0
-4734 4735 0
51 -4734 4736 0
-4736 4737 0
54 -4736 4738 0
-4738 4739 0
57 -4738 4740 0
-4740 4741 0
60 -4740 0
48 4733 0
-4733 4742 0
51 -4733 4735 0
-4735 4743 0
54 -4735 4737 0
-4737 4744 0
57 -4737 4739 0
-4739 4745 0
60 -4739 4741 0
-4741 4746 0
63 -4741 0
51 4742 0
54 -4742 4743 0
57 -4743 4744 0
60 -4744 4745 0
63 -4745 4746 0
66 -4746 0
-1 4747 0
-4747 4748 0
-5 -4747 4749 0
-4749 4750 0
-9 -4749 4751 0
-4751 4752 0
-13 -4751 4753 0
-4753 4754 0
-17 -4753 4755 0
-4755 4756 0
-21 -4755 0
-5 4748 0
-4748 4757 0
-9 -4748 4750 0
-4750 4758 0
-13 -4750 4752 0
-4752 4759 0
-17 -4752 4754 0
-4754 4760 0
-21 -4754 4756 0
-4756 4761 0
-25 -4756 0
-9 4757 0
-13 -4757 4758 0
-17 -4758 4759 0
-21 -4759 4760 0
-25 -4760 4761 0
-29 -4761 0
1 4762 0
-4762 4763 0
5 -4762 4764 0
-4764 4765 0
9 -4764 4766 0
-4766 4767 0
13 -4766 4768 0
-4768 4769 0
17 -4768 4770 0
-4770 4771 0
21 -4770 0
5 4763 0
-4763 4772 0
9 -4763 4765 0
-4765 4773 0
13 -4765 4767 0
-4767 4774 0
17 -4767 4769 0
-4769 4775 0
21 -4769 4771 0
-4771 4776 0
25 -4771 0
9 4772 0
13 -4772 4773 0
17 -4773 4774 0
21 -4774 4775 0
25 -4775 4776 0
29 -4776 0
-2 4777 0
-4777 4778 0
-6 -4777 4779 0
-4779 4780 0
-10 -4779 4781 0
-4781 4782 0
-14 -4781 4783 0
-4783 4784 0
-18 -4783 4785 0
-4785 4786 0
-22 -4785 0
-6 4778 0
-4778 4787 0
-10 -4778 4780 0
-4780 4788 0
-14 -4780 4782 0
-4782 4789 0
-18 -4782 4784 0
-4784 4790 0
-22 -4784 4786 0
-4786 4791 0
-26 -4786 0
-10 4787 0
-14 -4787 4788 0
-18 -4788 4789 0
-22 -4789 4790 0
-26 -4790 4791 0
-30 -4791 0
2 4792 0
-4792 4793 0
6 -4792 4794 0
-4794 4795 0
10 -4794 4796 0
-4796 4797 0
14 -4796 4798 0
-4798 4799 0
18 -4798 4800 0
-4800 4801 0
22 -4800 0
6 4793 0
-4793 4802 0
10 -4793 4795 0
-4795 4803 0
14 -4795 4797 0
-4797 4804 0
18 -4797 4799 0
-4799 4805 0
22 -4799 4801 0
-4801 4806 0
26 -4801 0
10 4802 0
14 -4802 4803 0
18 -4803 4804 0
22 -4804 4805 0
26 -4805 4806 0
30 -4806 0
-3 4807 0
-4807 4808 0
-7 -4807 4809 0
-4809 4810 0
-11 -4809 4811 0
-4811 4812 0
-15 -4811 4813 0
-4813 4814 0
-19 -4813 4815 0
-4815 4816 0
-23 -4815 0
-7 4808 0
-4808 4817 0
-11 -4808 4810 0
-4810 4818 0
-15 -4810 4812 0
-4812 4819 0
-19 -4812 4814 0
-4814 4820 0
-23 -4814 4816 0
-4816 4821 0
-27 -4816 0
-11 4817 0
-15 -4817 4818 0
-19 -4818 4819 0
-23 -4819 4820 0
-27 -4820 4821 0
-31 -4821 0
3 4822 0
-4822 4823 0
7 -4822 4824 0
-4824 4825 0
11 -4824 4826 0
-4826 4827 0
15 -4826 4828 0
-4828 4829 0
19 -4828 4830 0
-4830 4831 0
23 -4830 0
7 4823 0
-4823 4832 0
11 -4823 4825 0
-4825 4833 0
15 -4825 4827 0
-4827 4834 0
19 -4827 4829 0
-4829 4835 0
23 -4829 4831 0
-4831 4836 0
27 -4831 0
11 4832 0
15 -4832 4833 0
19 -4833 4834 0
23 -4834 4835 0
27 -4835 4836 0
31 -4836 0
-4 4837 0
-4837 4838 0
-8 -4837 4839 0
-4839 4840 0
-12 -4839 4841 0
-4841 4842 0
-16 -4841 4843 0
-4843 4844 0
-20 -4843 4845 0
-4845 4846 0
-24 -4845 0
-8 4838 0
-4838 4847 0
-12 -4838 4840 0
-4840 4848 0
-16 -4840 4842 0
-4842 4849 0
-20 -4842 4844 0
-4844 4850 0
-24 -4844 4846 0
-4846 4851 0
-28 -4846 0
-12 4847 0
-16 -4847 4848 0
-20 -4848 4849 0
-24 -4849 4850 0
-28 -4850 4851 0
-32 -4851 0
4 4852 0
-4852 4853 0
8 -4852 4854 0
-4854 4855 0
12 -4854 4856 0
-4856 4857 0
16 -4856 4858 0
-4858 4859 0
20 -4858 4860 0
-4860 4861 0
24 -4860 0
8 4853 0
-4853 4862 0
12 -4853 4855 0
-4855 4863 0
16 -4855 4857 0
-4857 4864 0
20 -4857 4859 0
-4859 4865 0
24 -4859 4861 0
-4861 4866 0
28 -4861 0
12 4862 0
16 -4862 4863 0
20 -4863 4864 0
24 -4864 4865 0
28 -4865 4866 0
32 -4866 0
-5 4867 0
-4867 4868 0
-9 -4867 4869 0
-4869 4870 0
-13 -4869 4871 0
-4871 4872 0
-17 -4871 4873 0
-4873 4874 0
-21 -4873 4875 0
-4875 4876 0
-25 -4875 0
-9 4868 0
-4868 4877 0
-13 -4868 4870 0
-4870 4878 0
-17 -4870 4872 0
-4872 4879 0
-21 -4872 4874 0
-4874 4880 0
-25 -4874 4876 0
-4876 4881 0
-29 -4876 0
-13 4877 0
-17 -4877 4878 0
-21 -4878 4879 0
-25 -4879 4880 0
-29 -4880 4881 0
-33 -4881 0
5 4882 0
-4882 4883 0
9 -4882 4884 0
-4884 4885 0
13 -4884 4886 0
-4886 4887 0
17 -4886 4888 0
-4888 4889 0
21 -4888 4890 0
-4890 4891 0
25 -4890 0
9 4883 0
-4883 4892 0
13 -4883 4885 0
-4885 4893 0
17 -4885 4887 0
-4887 4894 0
21 -4887 4889 0
-4889 4895 0
25 -4889 4891 0
-4891 4896 0
29 -4891 0
13 4892 0
17 -4892 4893 0
21 -4893 4894 0
25 -4894 4895 0
29 -4895 4896 0
33 -4896 0
-6 4897 0
-4897 4898 0
-10 -4897 4899 0
-4899 4900 0
-14 -4899 4901 0
-4901 4902 0
-18 -4901 4903 0
-4903 4904 0
-22 -4903 4905 0
-4905 4906 0
-26 -4905 0
-10 4898 0
-4898 4907 0
-14 -4898 4900 0
-4900 4908 0
-18 -4900 4902 0
-4902 4909 0
-22 -4902 4904 0
-4904 4910 0
-26 -4904 4906 0
-4906 4911 0
-30 -4906 0
-14 4907 0
-18 -4907 4908 0
-22 -4908 4909 0
-26 -4909 4910 0
-30 -4910 4911 0
-34 -4911 0
6 4912 0
-4912 4913 0
10 -4912 4914 0
-4914 4915 0
14 -4914 4916 0
-4916 4917 0
18 -4916 4918 0
-4918 4919 0
22 -4918 4920 0
-4920 4921 0
26 -4920 0
10 4913 0
-4913 4922 0
14 -4913 4915 0
-4915 4923 0
18 -4915 4917 0
-4917 4924 0
22 -4917 4919 0
-4919 4925 0
26 -4919 4921 0
-4921 4926 0
30 -4921 0
14 4922 0
18 -4922 4923 0
22 -4923 4924 0
26 -4924 4925 0
30 -4925 4926 0
34 -4926 0
-7 4927 0
-4927 4928 0
-11 -4927 4929 0
-4929 4930 0
-15 -4929 4931 0
-4931 4932 0
-19 -4931 4933 0
-4933 4934 0
-23 -4933 4935 0
-4935 4936 0
-27 -4935 0
-11 4928 0
-4928 4937 0
-15 -4928 4930 0
-4930 4938 0
-19 -4930 4932 0
-4932 4939 0
-23 -4932 4934 0
-4934 4940 0
-27 -4934 4936 0
-4936 4941 0
-31 -4936 0
-15 4937 0
-19 -4937 4938 0
-23 -4938 4939 0
-27 -4939 4940 0
-31 -4940 4941 0
-35 -4941 0
7 4942 0
-4942 4943 0
11 -4942 4944 0
-4944 4945 0
15 -4944 4946 0
-4946 4947 0
19 -4946 4948 0
-4948 4949 0
23 -4948 4950 0
-4950 4951 0
27 -4950 0
11 4943 0
-4943 4952 0
15 -4943 4945 0
-4945 4953 0
19 -4945 4947 0
-4947 4954 0
23 -4947 4949 0
-4949 4955 0
27 -4949 4951 0
-4951 4956 0
31 -4951 0
15 4952 0
19 -4952 4953 0
23 -4953 4954 0
27 -4954 4955 0
31 -4955 4956 0
35 -4956 0
-8 4957 0
-4957 4958 0
-12 -4957 4959 0
-4959 4960 0
-16 -4959 4961 0
-4961 4962 0
-20 -4961 4963 0
-4963 4964 0
-24 -4963 4965 0
-4965 4966 0
-28 -4965 0
-12 4958 0
-4958 4967 0
-16 -4958 4960 0
-4960 4968 0
-20 -4960 4962 0
-4962 4969 0
-24 -4962 4964 0
-4964 4970 0
-28 -4964 4966 0
-4966 4971 0
-32 -4966 0
-16 4967 0
-20 -4967 4968 0
-24 -4968 4969 0
-28 -4969 4970 0
-32 -4970 4971 0
-36 -4971 0
8 4972 0
-4972 4973 0
12 -4972 4974 0
-4974 4975 0
16 -4974 4976 0
-4976 4977 0
20 -4976 4978 0
-4978 4979 0
24 -4978 4980 0
-4980 4981 0
28 -4980 0
12 4973 0
-4973 4982 0
16 -4973 4975 0
-4975 4983 0
20 -4975 4977 0
-4977 4984 0
24 -4977 4979 0
-4979 4985 0
28 -4979 4981 0
-4981 4986 0
32 -4981 0
16 4982 0
20 -4982 4983 0
24 -4983 4984 0
28 -4984 4985 0
32 -4985 4986 0
36 -4986 0
-9 4987 0
-4987 4988 0
-13 -4987 4989 0
-4989 4990 0
-17 -4989 4991 0
-4991 4992 0
-21 -4991 4993 0
-4993 4994 0
-25 -4993 4995 0
-4995 4996 0
-29 -4995 0
-13 4988 0
-4988 4997 0
-17 -4988 4990 0
-4990 4998 0
-21 -4990 4992 0
-4992 4999 0
-25 -4992 4994 0
-4994 5000 0
-29 -4994 4996 0
-4996 5001 0
-33 -4996 0
-17 4997 0
-21 -4997 4998 0
-25 -4998 4999 0
-29 -4999 5000 0
-33 -5000 5001 0
-37 -5001 0
9 5002 0
-5002 5003 0
13 -5002 5004 0
-5004 5005 0
17 -5004 5006 0
-5006 5007 0
21 -5006 5008 0
-5008 5009 0
25 -5008 5010 0
-5010 5011 0
29 -5010 0
13 5003 0
-5003 5012 0
17 -5003 5005 0
-5005 5013 0
21 -5005 5007 0
-5007 5014 0
25 -5007 5009 0
-5009 5015 0
29 -5009 5011 0
-5011 5016 0
33 -5011 0
17 5012 0
21 -5012 5013 0
25 -5013 5014 0
29 -5014 5015 0
33 -5015 5016 0
37 -5016 0
-10 5017 0
-5017 5018 0
-14 -5017 5019 0
-5019 5020 0
-18 -5019 5021 0
-5021 5022 0
-22 -5021 5023 0
-5023 5024 0
-26 -5023 5025 0
-5025 5026 0
-30 -5025 0
-14 5018 0
-5018 5027 0
-18 -5018 5020 0
-5020 5028 0
-22 -5020 5022 0
-5022 5029 0
-26 -5022 5024 0
-5024 5030 0
-30 -5024 5026 0
-5026 5031 0
-34 -5026 0
-18 5027 0
-22 -5027 5028 0
-26 -5028 5029 0
-30 -5029 5030 0
-34 -5030 5031 0
-38 -5031 0
10 5032 0
-5032 5033 0
14 -5032 5034 0
-5034 5035 0
18 -5034 5036 0
-5036 5037 0
22 -5036 5038 0
-5038 5039 0
26 -5038 5040 0
-5040 5041 0
30 -5040 0
14 5033 0
-5033 5042 0
18 -5033 5035 0
-5035 5043 0
22 -5035 5037 0
-5037 5044 0
26 -5037 5039 0
-5039 5045 0
30 -5039 5041 0
-5041 5046 0
34 -5041 0
18 5042 0
22 -5042 5043 0
26 -5043 5044 0
30 -5044 5045 0
34 -5045 5046 0
38 -5046 0
-11 5047 0
-5047 5048 0
-15 -5047 5049 0
-5049 5050 0
-19 -5049 5051 0
-5051 5052 0
-23 -5051 5053 0
-5053 5054 0
-27 -5053 5055 0
-5055 5056 0
-31 -5055 0
-15 5048 0
-5048 5057 0
-19 -5048 5050 0
-5050 5058 0
-23 -5050 5052 0
-5052 5059 0
-27 -5052 5054 0
-5054 5060 0
-31 -5054 5056 0
-5056 5061 0
-35 -5056 0
-19 5057 0
-23 -5057 5058 0
-27 -5058 5059 0
-31 -5059 5060 0
-35 -5060 5061 0
-39 -5061 0
11 5062 0
-5062 5063 0
15 -5062 5064 0
-5064 5065 0
19 -5064 5066 0
-5066 5067 0
23 -5066 5068 0
-5068 5069 0
27 -5068 5070 0
-5070 5071 0
31 -5070 0
15 5063 0
-5063 5072 0
19 -5063 5065 0
-5065 5073 0
23 -5065 5067 0
-5067 5074 0
27 -5067 5069 0
-5069 5075 0
31 -5069 5071 0
-5071 5076 0
35 -5071 0
19 5072 0
23 -5072 5073 0
27 -5073 5074 0
31 -5074 5075 0
35 -5075 5076 0
39 -5076 0
-12 5077 0
-5077 5078 0
-16 -5077 5079 0
-5079 5080 0
-20 -5079 5081 0
-5081 5082 0
-24 -5081 5083 0
-5083 5084 0
-28 -5083 5085 0
-5085 5086 0
-32 -5085 0
-16 5078 0
-5078 5087 0
-20 -5078 5080 0
-5080 5088 0
-24 -5080 5082 0
-5082 5089 0
-28 -5082 5084 0
-5084 5090 0
-32 -5084 5086 0
-5086 5091 0
-36 -5086 0
-20 5087 0
-24 -5087 5088 0
-28 -5088 5089 0
-32 -5089 5090 0
-36 -5090 5091 0
-40 -5091 0
12 5092 0
-5092 5093 0
16 -5092 5094 0
-5094 5095 0
20 -5094 5096 0
-5096 5097 0
24 -5096 5098 0
-5098 5099 0
28 -5098 5100 0
-5100 5101 0
32 -5100 0
16 5093 0
-5093 5102 0
20 -5093 5095 0
-5095 5103 0
24 -5095 5097 0
-5097 5104 0
28 -5097 5099 0
-5099 5105 0
32 -5099 5101 0
-5101 5106 0
36 -5101 0
20 5102 0
24 -5102 5103 0
28 -5103 5104 0
32 -5104 5105 0
36 -5105 5106 0
40 -5106 0
-13 5107 0
-5107 5108 0
-17 -5107 5109 0
-5109 5110 0
-21 -5109 5111 0
-5111 5112 0
-25 -5111 5113 0
-5113 5114 0
-29 -5113 5115 0
-5115 5116 0
-33 -5115 0
-17 5108 0
-5108 5117 0
-21 -5108 5110 0
-5110 5118 0
-25 -5110 5112 0
-5112 5119 0
-29 -5112 5114 0
-5114 5120 0
-33 -5114 5116 0
-5116 5121 0
-37 -5116 0
-21 5117 0
-25 -5117 5118 0
-29 -5118 5119 0
-33 -5119 5120 0
-37 -5120 5121 0
-41 -5121 0
13 5122 0
-5122 5123 0
17 -5122 5124 0
-5124 5125 0
21 -5124 5126 0
-5126 5127 0
25 -5126 5128 0
-5128 5129 0
29 -5128 5130 0
-5130 5131 0
33 -5130 0
17 5123 0
-5123 5132 0
21 -5123 5125 0
-5125 5133 0
25 -5125 5127 0
-5127 5134 0
29 -5127 5129 0
-5129 5135 0
33 -5129 5131 0
-5131 5136 0
37 -5131 0
21 5132 0
25 -5132 5133 0
29 -5133 5134 0
33 -5134 5135 0
37 -5135 5136 0
41 -5136 0
-14 5137 0
-5137 5138 0
-18 -5137 5139 0
-5139 5140 0
-22 -5139 5141 0
-5141 5142 0
-26 -5141 5143 0
-5143 5144 0
-30 -5143 5145 0
-5145 5146 0
-34 -5145 0
-18 5138 0
-5138 5147 0
-22 -5138 5140 0
-5140 5148 0
-26 -5140 5142 0
-5142 5149 0
-30 -5142 5144 0
-5144 5150 0
-34 -5144 5146 0
-5146 5151 0
-38 -5146 0
-22 5147 0
-26 -5147 5148 0
-30 -5148 5149 0
-34 -5149 5150 0
-38 -5150 5151 0
-42 -5151 0
14 5152 0
-5152 5153 0
18 -5152 5154 0
-5154 5155 0
22 -5154 5156 0
-5156 5157 0
26 -5156 5158 0
-5158 5159 0
30 -5158 5160 0
-5160 5161 0
34 -5160 0
18 5153 0
-5153 5162 0
22 -5153 5155 0
-5155 5163 0
26 -5155 5157 0
-5157 5164 0
30 -5157 5159 0
-5159 5165 0
34 -5159 5161 0
-5161 5166 0
38 -5161 0
22 5162 0
26 -5162 5163 0
30 -5163 5164 0
34 -5164 5165 0
38 -5165 5166 0
42 -5166 0
-15 5167 0
-5167 5168 0
-19 -5167 5169 0
-5169 5170 0
-23 -5169 5171 0
-5171 5172 0
-27 -5171 5173 0
-5173 5174 0
-31 -5173 5175 0
-5175 5176 0
-35 -5175 0
-19 5168 0
-5168 5177 0
-23 -5168 5170 0
-5170 5178 0
-27 -5170 5172 0
-5172 5179 0
-31 -5172 5174 0
-5174 5180 0
-35 -5174 5176 0
-5176 5181 0
-39 -5176 0
-23 5177 0
-27 -5177 5178 0
-31 -5178 5179 0
-35 -5179 5180 0
-39 -5180 5181 0
-43 -5181 0
15 5182 0
-5182 5183 0
19 -5182 5184 0
-5184 5185 0
23 -5184 5186 0
-5186 5187 0
27 -5186 5188 0
-5188 5189 0
31 -5188 5190 0
-5190 5191 0
35 -5190 0
19 5183 0
-5183 5192 0
23 -5183 5185 0
-5185 5193 0
27 -5185 5187 0
-5187 5194 0
31 -5187 5189 0
-5189 5195 0
35 -5189 5191 0
-5191 5196 0
39 -5191 0
23 5192 0
27 -5192 5193 0
31 -5193 5194 0
35 -5194 5195 0
39 -5195 5196 0
43 -5196 0
-16 5197 0
-5197 5198 0
-20 -5197 5199 0
-5199 5200 0
-24 -5199 5201 0
-5201 5202 0
-28 -5201 5203 0
-5203 5204 0
-32 -5203 5205 0
-5205 5206 0
-36 -5205 0
-20 5198 0
-5198 5207 0
-24 -5198 5200 0
-5200 5208 0
-28 -5200 5202 0
-5202 5209 0
-32 -5202 5204 0
-5204 5210 0
-36 -5204 5206 0
-5206 5211 0
-40 -5206 0
-24 5207 0
-28 -5207 5208 0
-32 -5208 5209 0
-36 -5209 5210 0
-40 -5210 5211 0
-44 -5211 0
16 5212 0
-5212 5213 0
20 -5212 5214 0
-5214 5215 0
24 -5214 5216 0
-5216 5217 0
28 -5216 5218 0
-5218 5219 0
32 -5218 5220 0
-5220 5221 0
36 -5220 0
20 5213 0
-5213 5222 0
24 -5213 5215 0
-5215 5223 0
28 -5215 5217 0
-5217 5224 0
32 -5217 5219 0
-5219 5225 0
36 -5219 5221 0
-5221 5226 0
40 -5221 0
24 5222 0
28 -5222 5223 0
32 -5223 5224 0
36 -5224 5225 0
40 -5225 5226 0
44 -5226 0
-17 5227 0
-5227 5228 0
-21 -5227 5229 0
-5229 5230 0
-25 -5229 5231 0
-5231 5232 0
-29 -5231 5233 0
-5233 5234 0
-33 -5233 5235 0
-5235 5236 0
-37 -5235 0
-21 5228 0
-5228 5237 0
-25 -5228 5230 0
-5230 5238 0
-29 -5230 5232 0
-5232 5239 0
-33 -5232 5234 0
-5234 5240 0
-37 -5234 5236 0
-5236 5241 0
-41 -5236 0
-25 5237 0
-29 -5237 5238 0
-33 -5238 5239 0
-37 -5239 5240 0
-41 -5240 5241 0
-45 -5241 0
17 5242 0
-5242 5243 0
21 -5242 5244 0
-5244 5245 0
25 -5244 5246 0
-5246 5247 0
29 -5246 5248 0
-5248 5249 0
33 -5248 5250 0
-5250 5251 0
37 -5250 0
21 5243 0
-5243 5252 0
25 -5243 5245 0
-5245 5253 0
29 -5245 5247 0
-5247 5254 0
33 -5247 5249 0
-5249 5255 0
37 -5249 5251 0
-5251 5256 0
41 -5251 0
25 5252 0
29 -5252 5253 0
33 -5253 5254 0
37 -5254 5255 0
41 -5255 5256 0
45 -5256 0
-18 5257 0
-5257 5258 0
-22 -5257 5259 0
-5259 5260 0
-26 -5259 5261 0
-5261 5262 0
-30 -5261 5263 0
-5263 5264 0
-34 -5263 5265 0
-5265 5266 0
-38 -5265 0
-22 5258 0
-5258 5267 0
-26 -5258 5260 0
-5260 5268 0
-30 -5260 5262 0
-5262 5269 0
-34 -5262 5264 0
-5264 5270 0
-38 -5264 5266 0
-5266 5271 0
-42 -5266 0
-26 5267 0
-30 -5267 5268 0
-34 -5268 5269 0
-38 -5269 5270 0
-42 -5270 5271 0
-46 -5271 0
18 5272 0
-5272 5273 0
22 -5272 5274 0
-5274 5275 0
26 -5274 5276 0
-5276 5277 0
30 -5276 5278 0
-5278 5279 0
34 -5278 5280 0
-5280 5281 0
38 -5280 0
22 5273 0
-5273 5282 0
26 -5273 5275 0
-5275 5283 0
30 -5275 5277 0
-5277 5284 0
34 -5277 5279 0
-5279 5285 0
38 -5279 5281 0
-5281 5286 0
42 -5281 0
26 5282 0
30 -5282 5283 0
34 -5283 5284 0
38 -5284 5285 0
42 -5285 5286 0
46 -5286 0
-19 5287 0
-5287 5288 0
-23 -5287 5289 0
-5289 5290 0
-27 -5289 5291 0
-5291 5292 0
-31 -5291 5293 0
-5293 5294 0
-35 -5293 5295 0
-5295 5296 0
-39 -5295 0
-23 5288 0
-5288 5297 0
-27 -5288 5290 0
-5290 5298 0
-31 -5290 5292 0
-5292 5299 0
-35 -5292 5294 0
-5294 5300 0
-39 -5294 5296 0
-5296 5301 0
-43 -5296 0
-27 5297 0
-31 -5297 5298 0
-35 -5298 5299 0
-39 -5299 5300 0
-43 -5300 5301 0
-47 -5301 0
19 5302 0
-5302 5303 0
23 -5302 5304 0
-5304 5305 0
27 -5304 5306 0
-5306 5307 0
31 -5306 5308 0
-5308 5309 0
35 -5308 5310 0
-5310 5311 0
39 -5310 0
23 5303 0
-5303 5312 0
27 -5303 5305 0
-5305 5313 0
31 -5305 5307 0
-5307 5314 0
35 -5307 5309 0
-5309 5315 0
39 -5309 5311 0
-5311 5316 0
43 -5311 0
27 5312 0
31 -5312 5313 0
35 -5313 5314 0
39 -5314 5315 0
43 -5315 5316 0
47 -5316 0
-20 5317 0
-5317 5318 0
-24 -5317 5319 0
-5319 5320 0
-28 -5319 5321 0
-5321 5322 0
-32 -5321 5323 0
-5323 5324 0
-36 -5323 5325 0
-5325 5326 0
-40 -5325 0
-24 5318 0
-5318 5327 0
-28 -5318 5320 0
-5320 5328 0
-32 -5320 5322 0
-5322 5329 0
-36 -5322 5324 0
-5324 5330 0
-40 -5324 5326 0
-5326 5331 0
-44 -5326 0
-28 5327 0
-32 -5327 5328 0
-36 -5328 5329 0
-40 -5329 5330 0
-44 -5330 5331 0
-48 -5331 0
20 5332 0
-5332 5333 0
24 -5332 5334 0
-5334 5335 0
28 -5334 5336 0
-5336 5337 0
32 -5336 5338 0
-5338 5339 0
36 -5338 5340 0
-5340 5341 0
40 -5340 0
24 5333 0
-5333 5342 0
28 -5333 5335 0
-5335 5343 0
32 -5335 5337 0
-5337 5344 0
36 -5337 5339 0
-5339 5345 0
40 -5339 5341 0
-5341 5346 0
44 -5341 0
28 5342 0
32 -5342 5343 0
36 -5343 5344 0
40 -5344 5345 0
44 -5345 5346 0
48 -5346 0
-21 5347 0
-5347 5348 0
-25 -5347 5349 0
-5349 5350 0
-29 -5349 5351 0
-5351 5352 0
-33 -5351 5353 0
-5353 5354 0
-37 -5353 5355 0
-5355 5356 0
-41 -5355 0
-25 5348 0
-5348 5357 0
-29 -5348 5350 0
-5350 5358 0
-33 -5350 5352 0
-5352 5359 0
-37 -5352 5354 0
-5354 5360 0
-41 -5354 5356 0
-5356 5361 0
-45 -5356 0
-29 5357 0
-33 -5357 5358 0
-37 -5358 5359 0
-41 -5359 5360 0
-45 -5360 5361 0
-49 -5361 0
21 5362 0
-5362 5363 0
25 -5362 5364 0
-5364 5365 0
29 -5364 5366 0
-5366 5367 0
33 -5366 5368 0
-5368 5369 0
37 -5368 5370 0
-5370 5371 0
41 -5370 0
25 5363 0
-5363 5372 0
29 -5363 5365 0
-5365 5373 0
33 -5365 5367 0
-5367 5374 0
37 -5367 5369 0
-5369 5375 0
41 -5369 5371 0
-5371 5376 0
45 -5371 0
29 5372 0
33 -5372 5373 0
37 -5373 5374 0
41 -5374 5375 0
45 -5375 5376 0
49 -5376 0
-22 5377 0
-5377 5378 0
-26 -5377 5379 0
-5379 5380 0
-30 -5379 5381 0
-5381 5382 0
-34 -5381 5383 0
-5383 5384 0
-38 -5383 5385 0
-5385 5386 0
-42 -5385 0
-26 5378 0
-5378 5387 0
-30 -5378 5380 0
-5380 5388 0
-34 -5380 5382 0
-5382 5389 0
-38 -5382 5384 0
-5384 5390 0
-42 -5384 5386 0
-5386 5391 0
-46 -5386 0
-30 5387 0
-34 -5387 5388 0
-38 -5388 5389 0
-42 -5389 5390 0
-46 -5390 5391 0
-50 -5391 0
22 5392 0
-5392 5393 0
26 -5392 5394 0
-5394 5395 0
30 -5394 5396 0
-5396 5397 0
34 -5396 5398 0
-5398 5399 0
38 -5398 5400 0
-5400 5401 0
42 -5400 0
26 5393 0
-5393 5402 0
30 -5393 5395 0
-5395 5403 0
34 -5395 5397 0
-5397 5404 0
38 -5397 5399 0
-5399 5405 0
42 -5399 5401 0
-5401 5406 0
46 -5401 0
30 5402 0
34 -5402 5403 0
38 -5403 5404 0
42 -5404 5405 0
46 -5405 5406 0
50 -5406 0
-23 5407 0
-5407 5408 0
-27 -5407 5409 0
-5409 5410 0
-31 -5409 5411 0
-5411 5412 0
-35 -5411 5413 0
-5413 5414 0
-39 -5413 5415 0
-5415 5416 0
-43 -5415 0
-27 5408 0
-5408 5417 0
-31 -5408 5410 0
-5410 5418 0
-35 -5410 5412 0
-5412 5419 0
-39 -5412 5414 0
-5414 5420 0
-43 -5414 5416 0
-5416 5421 0
-47 -5416 0
-31 5417 0
-35 -5417 5418 0
-39 -5418 5419 0
-43 -5419 5420 0
-47 -5420 5421 0
-51 -5421 0
23 5422 0
-5422 5423 0
27 -5422 5424 0
-5424 5425 0
31 -5424 5426 0
-5426 5427 0
35 -5426 5428 0
-5428 5429 0
39 -5428 5430 0
-5430 5431 0
43 -5430 0
27 5423 0
-5423 5432 0
31 -5423 5425 0
-5425 5433 0
35 -5425 5427 0
-5427 5434 0
39 -5427 5429 0
-5429 5435 0
43 -5429 5431 0
-5431 5436 0
47 -5431 0
31 5432 0
35 -5432 5433 0
39 -5433 5434 0
43 -5434 5435 0
47 -5435 5436 0
51 -5436 0
-24 5437 0
-5437 5438 0
-28 -5437 5439 0
-5439 5440 0
-32 -5439 5441 0
-5441 5442 0
-36 -5441 5443 0
-5443 5444 0
-40 -5443 5445 0
-5445 5446 0
-44 -5445 0
-28 5438 0
-5438 5447 0
-32 -5438 5440 0
-5440 5448 0
-36 -5440 5442 0
-5442 5449 0
-40 -5442 5444 0
-5444 5450 0
-44 -5444 5446 0
-5446 5451 0
-48 -5446 0
-32 5447 0
-36 -5447 5448 0
-40 -5448 5449 0
-44 -5449 5450 0
-48 -5450 5451 0
-52 -5451 0
24 5452 0
-5452 5453 0
28 -5452 5454 0
-5454 5455 0
32 -5454 5456 0
-5456 5457 0
36 -5456 5458 0
-5458 5459 0
40 -5458 5460 0
-5460 5461 0
44 -5460 0
28 5453 0
-5453 5462 0
32 -5453 5455 0
-5455 5463 0
36 -5455 5457 0
-5457 5464 0
40 -5457 5459 0
-5459 5465 0
44 -5459 5461 0
-5461 5466 0
48 -5461 0
32 5462 0
36 -5462 5463 0
40 -5463 5464 0
44 -5464 5465 0
48 -5465 5466 0
52 -5466 0
-25 5467 0
-5467 5468 0
-29 -5467 5469 0
-5469 5470 0
-33 -5469 5471 0
-5471 5472 0
-37 -5471 5473 0
-5473 5474 0
-41 -5473 5475 0
-5475 5476 0
-45 -5475 0
-29 5468 0
-5468 5477 0
-33 -5468 5470 0
-5470 5478 0
-37 -5470 5472 0
-5472 5479 0
-41 -5472 5474 0
-5474 5480 0
-45 -5474 5476 0
-5476 5481 0
-49 -5476 0
-33 5477 0
-37 -5477 5478 0
-41 -5478 5479 0
-45 -5479 5480 0
-49 -5480 5481 0
-53 -5481 0
25 5482 0
-5482 5483 0
29 -5482 5484 0
-5484 5485 0
33 -5484 5486 0
-5486 5487 0
37 -5486 5488 0
-5488 5489 0
41 -5488 5490 0
-5490 5491 0
45 -5490 0
29 5483 0
-5483 5492 0
33 -5483 5485 0
-5485 5493 0
37 -5485 5487 0
-5487 5494 0
41 -5487 5489 0
-5489 5495 0
45 -5489 5491 0
-5491 5496 0
49 -5491 0
33 5492 0
37 -5492 5493 0
41 -5493 5494 0
45 -5494 5495 0
49 -5495 5496 0
53 -5496 0
-26 5497 0
-5497 5498 0
-30 -5497 5499 0
-5499 5500 0
-34 -5499 5501 0
-5501 5502 0
-38 -5501 5503 0
-5503 5504 0
-42 -5503 5505 0
-5505 5506 0
-46 -5505 0
-30 5498 0
-5498 5507 0
-34 -5498 5500 0
-5500 5508 0
-38 -5500 5502 0
-5502 5509 0
-42 -5502 5504 0
-5504 5510 0
-46 -5504 5506 0
-5506 5511 0
-50 -5506 0
-34 5507 0
-38 -5507 5508 0
-42 -5508 5509 0
-46 -5509 5510 0
-50 -5510 5511 0
-54 -5511 0
26 5512 0
-5512 5513 0
30 -5512 5514 0
-5514 5515 0
34 -5514 5516 0
-5516 5517 0
38 -5516 5518 0
-5518 5519 0
42 -5518 5520 0
-5520 5521 0
46 -5520 0
30 5513 0
-5513 5522 0
34 -5513 5515 0
-5515 5523 0
38 -5515 5517 0
-5517 5524 0
42 -5517 5519 0
-5519 5525 0
46 -5519 5521 0
-5521 5526 0
50 -5521 0
34 5522 0
38 -5522 5523 0
42 -5523 5524 0
46 -5524 5525 0
50 -5525 5526 0
54 -5526 0
-27 5527 0
-5527 5528 0
-31 -5527 5529 0
-5529 5530 0
-35 -5529 5531 0
-5531 5532 0
-39 -5531 5533 0
-5533 5534 0
-43 -5533 5535 0
-5535 5536 0
-47 -5535 0
-31 5528 0
-5528 5537 0
-35 -5528 5530 0
-5530 5538 0
-39 -5530 5532 0
-5532 5539 0
-43 -5532 5534 0
-5534 5540 0
-47 -5534 5536 0
-5536 5541 0
-51 -5536 0
-35 5537 0
-39 -5537 5538 0
-43 -5538 5539 0
-47 -5539 5540 0
-51 -5540 5541 0
-55 -5541 0
27 5542 0
-5542 5543 0
31 -5542 5544 0
-5544 5545 0
35 -5544 5546 0
-5546 5547 0
39 -5546 5548 0
-5548 5549 0
43 -5548 5550 0
-5550 5551 0
47 -5550 0
31 5543 0
-5543 5552 0
35 -5543 5545 0
-5545 5553 0
39 -5545 5547 0
-5547 5554 0
43 -5547 5549 0
-5549 5555 0
47 -5549 5551 0
-5551 5556 0
51 -5551 0
35 5552 0
39 -5552 5553 0
43 -5553 5554 0
47 -5554 5555 0
51 -5555 5556 0
55 -5556 0
-28 5557 0
-5557 5558 0
-32 -5557 5559 0
-5559 5560 0
-36 -5559 5561 0
-5561 5562 0
-40 -5561 5563 0
-5563 5564 0
-44 -5563 5565 0
-5565 5566 0
-48 -5565 0
-32 5558 0
-5558 5567 0
-36 -5558 5560 0
-5560 5568 0
-40 -5560 5562 0
-5562 5569 0
-44 -5562 5564 0
-5564 5570 0
-48 -5564 5566 0
-5566 5571 0
-52 -5566 0
-36 5567 0
-40 -5567 5568 0
-44 -5568 5569 0
-48 -5569 5570 0
-52 -5570 5571 0
-56 -5571 0
28 5572 0
-5572 5573 0
32 -5572 5574 0
-5574 5575 0
36 -5574 5576 0
-5576 5577 0
40 -5576 5578 0
-5578 5579 0
44 -5578 5580 0
-5580 5581 0
48 -5580 0
32 5573 0
-5573 5582 0
36 -5573 5575 0
-5575 5583 0
40 -5575 5577 0
-5577 5584 0
44 -5577 5579 0
-5579 5585 0
48 -5579 5581 0
-5581 5586 0
52 -5581 0
36 5582 0
40 -5582 5583 0
44 -5583 5584 0
48 -5584 5585 0
52 -5585 5586 0
56 -5586 0
-29 5587 0
-5587 5588 0
-33 -5587 5589 0
-5589 5590 0
-37 -5589 5591 0
-5591 5592 0
-41 -5591 5593 0
-5593 5594 0
-45 -5593 5595 0
-5595 5596 0
-49 -5595 0
-33 5588 0
-5588 5597 0
-37 -5588 5590 0
-5590 5598 0
-41 -5590 5592 0
-5592 5599 0
-45 -5592 5594 0
-5594 5600 0
-49 -5594 5596 0
-5596 5601 0
-53 -5596 0
-37 5597 0
-41 -5597 5598 0
-45 -5598 5599 0
-49 -5599 5600 0
-53 -5600 5601 0
-57 -5601 0
29 5602 0
-5602 5603 0
33 -5602 5604 0
-5604 5605 0
37 -5604 5606 0
-5606 5607 0
41 -5606 5608 0
-5608 5609 0
45 -5608 5610 0
-5610 5611 0
49 -5610 0
33 5603 0
-5603 5612 0
37 -5603 5605 0
-5605 5613 0
41 -5605 5607 0
-5607 5614 0
45 -5607 5609 0
-5609 5615 0
49 -5609 5611 0
-5611 5616 0
53 -5611 0
37 5612 0
41 -5612 5613 0
45 -5613 5614 0
49 -5614 5615 0
53 -5615 5616 0
57 -5616 0
-30 5617 0
-5617 5618 0
-34 -5617 5619 0
-5619 5620 0
-38 -5619 5621 0
-5621 5622 0
-42 -5621 5623 0
-5623 5624 0
-46 -5623 5625 0
-5625 5626 0
-50 -5625 0
-34 5618 0
-5618 5627 0
-38 -5618 5620 0
-5620 5628 0
-42 -5620 5622 0
-5622 5629 0
-46 -5622 5624 0
-5624 5630 0
-50 -5624 5626 0
-5626 5631 0
-54 -5626 0
-38 5627 0
-42 -5627 5628 0
-46 -5628 5629 0
-50 -5629 5630 0
-54 -5630 5631 0
-58 -5631 0
30 5632 0
-5632 5633 0
34 -5632 5634 0
-5634 5635 0
38 -5634 5636 0
-5636 5637 0
42 -5636 5638 0
-5638 5639 0
46 -5638 5640 0
-5640 5641 0
50 -5640 0
34 5633 0
-5633 5642 0
38 -5633 5635 0
-5635 5643 0
42 -5635 5637 0
-5637 5644 0
46 -5637 5639 0
-5639 5645 0
50 -5639 5641 0
-5641 5646 0
54 -5641 0
38 5642 0
42 -5642 5643 0
46 -5643 5644 0
50 -5644 5645 0
54 -5645 5646 0
58 -5646 0
-31 5647 0
-5647 5648 0
-35 -5647 5649 0
-5649 5650 0
-39 -5649 5651 0
-5651 5652 0
-43 -5651 5653 0
-5653 5654 0
-47 -5653 5655 0
-5655 5656 0
-51 -5655 0
-35 5648 0
-5648 5657 0
-39 -5648 5650 0
-5650 5658 0
-43 -5650 5652 0
-5652 5659 0
-47 -5652 5654 0
-5654 5660 0
-51 -5654 5656 0
-5656 5661 0
-55 -5656 0
-39 5657 0
-43 -5657 5658 0
-47 -5658 5659 0
-51 -5659 5660 0
-55 -5660 5661 0
-59 -5661 0
31 5662 0
-5662 5663 0
35 -5662 5664 0
-5664 5665 0
39 -5664 5666 0
-5666 5667 0
43 -5666 5668 0
-5668 5669 0
47 -5668 5670 0
-5670 5671 0
51 -5670 0
35 5663 0
-5663 5672 0
39 -5663 5665 0
-5665 5673 0
43 -5665 5667 0
-5667 5674 0
47 -5667 5669 0
-5669 5675 0
51 -5669 5671 0
-5671 5676 0
55 -5671 0
39 5672 0
43 -5672 5673 0
47 -5673 5674 0
51 -5674 5675 0
55 -5675 5676 0
59 -5676 0
-32 5677 0
-5677 5678 0
-36 -5677 5679 0
-5679 5680 0
-40 -5679 5681 0
-5681 5682 0
-44 -5681 5683 0
-5683 5684 0
-48 -5683 5685 0
-5685 5686 0
-52 -5685 0
-36 5678 0
-5678 5687 0
-40 -5678 5680 0
-5680 5688 0
-44 -5680 5682 0
-5682 5689 0
-48 -5682 5684 0
-5684 5690 0
-52 -5684 5686 0
-5686 5691 0
-56 -5686 0
-40 5687 0
-44 -5687 5688 0
-48 -5688 5689 0
-52 -5689 5690 0
-56 -5690 5691 0
-60 -5691 0
32 5692 0
-5692 5693 0
36 -5692 5694 0
-5694 5695 0
40 -5694 5696 0
-5696 5697 0
44 -5696 5698 0
-5698 5699 0
48 -5698 5700 0
-5700 5701 0
52 -5700 0
36 5693 0
-5693 5702 0
40 -5693 5695 0
-5695 5703 0
44 -5695 5697 0
-5697 5704 0
48 -5697 5699 0
-5699 5705 0
52 -5699 5701 0
-5701 5706 0
56 -5701 0
40 5702 0
44 -5702 5703 0
48 -5703 5704 0
52 -5704 5705 0
56 -5705 5706 0
60 -5706 0
-33 5707 0
-5707 5708 0
-37 -5707 5709 0
-5709 5710 0
-41 -5709 5711 0
-5711 5712 0
-45 -5711 5713 0
-5713 5714 0
-49 -5713 5715 0
-5715 5716 0
-53 -5715 0
-37 5708 0
-5708 5717 0
-41 -5708 5710 0
-5710 5718 0
-45 -5710 5712 0
-5712 5719 0
-49 -5712 5714 0
-5714 5720 0
-53 -5714 5716 0
-5716 5721 0
-57 -5716 0
-41 5717 0
-45 -5717 5718 0
-49 -5718 5719 0
-53 -5719 5720 0
-57 -5720 5721 0
-61 -5721 0
33 5722 0
-5722 5723 0
37 -5722 5724 0
-5724 5725 0
41 -5724 5726 0
-5726 5727 0
45 -5726 5728 0
-5728 5729 0
49 -5728 5730 0
-5730 5731 0
53 -5730 0
37 5723 0
-5723 5732 0
41 -5723 5725 0
-5725 5733 0
45 -5725 5727 0
-5727 5734 0
49 -5727 5729 0
-5729 5735 0
53 -5729 5731 0
-5731 5736 0
57 -5731 0
41 5732 0
45 -5732 5733 0
49 -5733 5734 0
53 -5734 5735 0
57 -5735 5736 0
61 -5736 0
-34 5737 0
-5737 5738 0
-38 -5737 5739 0
-5739 5740 0
-42 -5739 5741 0
-5741 5742 0
-46 -5741 5743 0
-5743 5744 0
-50 -5743 5745 0
-5745 5746 0
-54 -5745 0
-38 5738 0
-5738 5747 0
-42 -5738 5740 0
-5740 5748 0
-46 -5740 5742 0
-5742 5749 0
-50 -5742 5744 0
-5744 5750 0
-54 -5744 5746 0
-5746 5751 0
-58 -5746 0
-42 5747 0
-46 -5747 5748 0
-50 -5748 5749 0
-54 -5749 5750 0
-58 -5750 5751 0
-62 -5751 0
34 5752 0
-5752 5753 0
38 -5752 5754 0
-5754 5755 0
42 -5754 5756 0
-5756 5757 0
46 -5756 5758 0
-5758 5759 0
50 -5758 5760 0
-5760 5761 0
54 -5760 0
38 5753 0
-5753 5762 0
42 -5753 5755 0
-5755 5763 0
46 -5755 5757 0
-5757 5764 0
50 -5757 5759 0
-5759 5765 0
54 -5759 5761 0
-5761 5766 0
58 -5761 0
42 5762 0
46 -5762 5763 0
50 -5763 5764 0
54 -5764 5765 0
58 -5765 5766 0
62 -5766 0
-35 5767 0
-5767 5768 0
-39 -5767 5769 0
-5769 5770 0
-43 -5769 5771 0
-5771 5772 0
-47 -5771 5773 0
-5773 5774 0
-51 -5773 5775 0
-5775 5776 0
-55 -5775 0
-39 5768 0
-5768 5777 0
-43 -5768 5770 0
-5770 5778 0
-47 -5770 5772 0
-5772 5779 0
-51 -5772 5774 0
-5774 5780 0
-55 -5774 5776 0
-5776 5781 0
-59 -5776 0
-43 5777 0
-47 -5777 5778 0
-51 -5778 5779 0
-55 -5779 5780 0
-59 -5780 5781 0
-63 -5781 0
35 5782 0
-5782 5783 0
39 -5782 5784 0
-5784 5785 0
43 -5784 5786 0
-5786 5787 0
47 -5786 5788 0
-5788 5789 0
51 -5788 5790 0
-5790 5791 0
55 -5790 0
39 5783 0
-5783 5792 0
43 -5783 5785 0
-5785 5793 0
47 -5785 5787 0
-5787 5794 0
51 -5787 5789 0
-5789 5795 0
55 -5789 5791 0
-5791 5796 0
59 -5791 0
43 5792 0
47 -5792 5793 0
51 -5793 5794 0
55 -5794 5795 0
59 -5795 5796 0
63 -5796 0
-36 5797 0
-5797 5798 0
-40 -5797 5799 0
-5799 5800 0
-44 -5799 5801 0
-5801 5802 0
-48 -5801 5803 0
-5803 5804 0
-52 -5803 5805 0
-5805 5806 0
-56 -5805 0
-40 5798 0
-5798 5807 0
-44 -5798 5800 0
-5800 5808 0
-48 -5800 5802 0
-5802 5809 0
-52 -5802 5804 0
-5804 5810 0
-56 -5804 5806 0
-5806 5811 0
-60 -5806 0
-44 5807 0
-48 -5807 5808 0
-52 -5808 5809 0
-56 -5809 5810 0
-60 -5810 5811 0
-64 -5811 0
36 5812 0
-5812 5813 0
40 -5812 5814 0
-5814 5815 0
44 -5814 5816 0
-5816 5817 0
48 -5816 5818 0
-5818 5819 0
52 -5818 5820 0
-5820 5821 0
56 -5820 0
40 5813 0
-5813 5822 0
44 -5813 5815 0
-5815 5823 0
48 -5815 5817 0
-5817 5824 0
52 -5817 5819 0
-5819 5825 0
56 -5819 5821 0
-5821 5826 0
60 -5821 0
44 5822 0
48 -5822 5823 0
52 -5823 5824 0
56 -5824 5825 0
60 -5825 5826 0
64 -5826 0
-37 5827 0
-5827 5828 0
-41 -5827 5829 0
-5829 5830 0
-45 -5829 5831 0
-5831 5832 0
-49 -5831 5833 0
-5833 5834 0
-53 -5833 5835 0
-5835 5836 0
-57 -5835 0
-41 5828 0
-5828 5837 0
-45 -5828 5830 0
-5830 5838 0
-49 -5830 5832 0
-5832 5839 0
-53 -5832 5834 0
-5834 5840 0
-57 -5834 5836 0
-5836 5841 0
-61 -5836 0
-45 5837 0
-49 -5837 5838 0
-53 -5838 5839 0
-57 -5839 5840 0
-61 -5840 5841 0
-65 -5841 0
37 5842 0
-5842 5843 0
41 -5842 5844 0
-5844 5845 0
45 -5844 5846 0
-5846 5847 0
49 -5846 5848 0
-5848 5849 0
53 -5848 5850 0
-5850 5851 0
57 -5850 0
41 5843 0
-5843 5852 0
45 -5843 5845 0
-5845 5853 0
49 -5845 5847 0
-5847 5854 0
53 -5847 5849 0
-5849 5855 0
57 -5849 5851 0
-5851 5856 0
61 -5851 0
45 5852 0
49 -5852 5853 0
53 -5853 5854 0
57 -5854 5855 0
61 -5855 5856 0
65 -5856 0
-38 5857 0
-5857 5858 0
-42 -5857 5859 0
-5859 5860 0
-46 -5859 5861 0
-5861 5862 0
-50 -5861 5863 0
-5863 5864 0
-54 -5863 5865 0
-5865 5866 0
-58 -5865 0
-42 5858 0
-5858 5867 0
-46 -5858 5860 0
-5860 5868 0
-50 -5860 5862 0
-5862 5869 0
-54 -5862 5864 0
-5864 5870 0
-58 -5864 5866 0
-5866 5871 0
-62 -5866 0
-46 5867 0
-50 -5867 5868 0
-54 -5868 5869 0
-58 -5869 5870 0
-62 -5870 5871 0
-66 -5871 0
38 5872 0
-5872 5873 0
42 -5872 5874 0
-5874 5875 0
46 -5874 5876 0
-5876 5877 0
50 -5876 5878 0
-5878 5879 0
54 -5878 5880 0
-5880 5881 0
58 -5880 0
42 5873 0
-5873 5882 0
46 -5873 5875 0
-5875 5883 0
50 -5875 5877 0
-5877 5884 0
54 -5877 5879 0
-5879 5885 0
58 -5879 5881 0
-5881 5886 0
62 -5881 0
46 5882 0
50 -5882 5883 0
54 -5883 5884 0
58 -5884 5885 0
62 -5885 5886 0
66 -5886 0
-1 5887 0
-5887 5888 0
-6 -5887 5889 0
-5889 5890 0
-11 -5889 5891 0
-5891 5892 0
-16 -5891 5893 0
-5893 5894 0
-21 -5893 5895 0
-5895 5896 0
-26 -5895 0
-6 5888 0
-5888 5897 0
-11 -5888 5890 0
-5890 5898 0
-16 -5890 5892 0
-5892 5899 0
-21 -5892 5894 0
-5894 5900 0
-26 -5894 5896 0
-5896 5901 0
-31 -5896 0
-11 5897 0
-16 -5897 5898 0
-21 -5898 5899 0
-26 -5899 5900 0
-31 -5900 5901 0
-36 -5901 0
1 5902 0
-5902 5903 0
6 -5902 5904 0
-5904 5905 0
11 -5904 5906 0
-5906 5907 0
16 -5906 5908 0
-5908 5909 0
21 -5908 5910 0
-5910 5911 0
26 -5910 0
6 5903 0
-5903 5912 0
11 -5903 5905 0
-5905 5913 0
16 -5905 5907 0
-5907 5914 0
21 -5907 5909 0
-5909 5915 0
26 -5909 5911 0
-5911 5916 0
31 -5911 0
11 5912 0
16 -5912 5913 0
21 -5913 5914 0
26 -5914 5915 0
31 -5915 5916 0
36 -5916 0
-2 5917 0
-5917 5918 0
-7 -5917 5919 0
-5919 5920 0
-12 -5919 5921 0
-5921 5922 0
-17 -5921 5923 0
-5923 5924 0
-22 -5923 5925 0
-5925 5926 0
-27 -5925 0
-7 5918 0
-5918 5927 0
-12 -5918 5920 0
-5920 5928 0
-17 -5920 5922 0
-5922 5929 0
-22 -5922 5924 0
-5924 5930 0
-27 -5924 5926 0
-5926 5931 0
-32 -5926 0
-12 5927 0
-17 -5927 5928 0
-22 -5928 5929 0
-27 -5929 5930 0
-32 -5930 5931 0
-37 -5931 0
2 5932 0
-5932 5933 0
7 -5932 5934 0
-5934 5935 0
12 -5934 5936 0
-5936 5937 0
17 -5936 5938 0
-5938 5939 0
22 -5938 5940 0
-5940 5941 0
27 -5940 0
7 5933 0
-5933 5942 0
12 -5933 5935 0
-5935 5943 0
17 -5935 5937 0
-5937 5944 0
22 -5937 5939 0
-5939 5945 0
27 -5939 5941 0
-5941 5946 0
32 -5941 0
12 5942 0
17 -5942 5943 0
22 -5943 5944 0
27 -5944 5945 0
32 -5945 5946 0
37 -5946 0
-3 5947 0
-5947 5948 0
-8 -5947 5949 0
-5949 5950 0
-13 -5949 5951 0
-5951 5952 0
-18 -5951 5953 0
-5953 5954 0
-23 -5953 5955 0
-5955 5956 0
-28 -5955 0
-8 5948 0
-5948 5957 0
-13 -5948 5950 0
-5950 5958 0
-18 -5950 5952 0
-5952 5959 0
-23 -5952 5954 0
-5954 5960 0
-28 -5954 5956 0
-5956 5961 0
-33 -5956 0
-13 5957 0
-18 -5957 5958 0
-23 -5958 5959 0
-28 -5959 5960 0
-33 -5960 5961 0
-38 -5961 0
3 5962 0
-5962 5963 0
8 -5962 5964 0
-5964 5965 0
13 -5964 5966 0
-5966 5967 0
18 -5966 5968 0
-5968 5969 0
23 -5968 5970 0
-5970 5971 0
28 -5970 0
8 5963 0
-5963 5972 0
13 -5963 5965 0
-5965 5973 0
18 -5965 5967 0
-5967 5974 0
23 -5967 5969 0
-5969 5975 0
28 -5969 5971 0
-5971 5976 0
33 -5971 0
13 5972 0
18 -5972 5973 0
23 -5973 5974 0
28 -5974 5975 0
33 -5975 5976 0
38 -5976 0
-4 5977 0
-5977 5978 0
-9 -5977 5979 0
-5979 5980 0
-14 -5979 5981 0
-5981 5982 0
-19 -5981 5983 0
-5983 5984 0
-24 -5983 5985 0
-5985 5986 0
-29 -5985 0
-9 5978 0
-5978 5987 0
-14 -5978 5980 0
-5980 5988 0
-19 -5980 5982 0
-5982 5989 0
-24 -5982 5984 0
-5984 5990 0
-29 -5984 5986 0
-5986 5991 0
-34 -5986 0
-14 5987 0
-19 -5987 5988 0
-24 -5988 5989 0
-29 -5989 5990 0
-34 -5990 5991 0
-39 -5991 0
4 5992 0
-5992 5993 0
9 -5992 5994 0
-5994 5995 0
14 -5994 5996 0
-5996 5997 0
19 -5996 5998 0
-5998 5999 0
24 -5998 6000 0
-6000 6001 0
29 -6000 0
9 5993 0
-5993 6002 0
14 -5993 5995 0
-5995 6003 0
19 -5995 5997 0
-5997 6004 0
24 -5997 5999 0
-5999 6005 0
29 -5999 6001 0
-6001 6006 0
34 -6001 0
14 6002 0
19 -6002 6003 0
24 -6003 6004 0
29 -6004 6005 0
34 -6005 6006 0
39 -6006 0
-5 6007 0
-6007 6008 0
-10 -6007 6009 0
-6009 6010 0
-15 -6009 6011 0
-6011 6012 0
-20 -6011 6013 0
-6013 6014 0
-25 -6013 6015 0
-6015 6016 0
-30 -6015 0
-10 6008 0
-6008 6017 0
-15 -6008 6010 0
-6010 6018 0
-20 -6010 6012 0
-6012 6019 0
-25 -6012 6014 0
-6014 6020 0
-30 -6014 6016 0
-6016 6021 0
-35 -6016 0
-15 6017 0
-20 -6017 6018 0
-25 -6018 6019 0
-30 -6019 6020 0
-35 -6020 6021 0
-40 -6021 0
5 6022 0
-6022 6023 0
10 -6022 6024 0
-6024 6025 0
15 -6024 6026 0
-6026 6027 0
20 -6026 6028 0
-6028 6029 0
25 -6028 6030 0
-6030 6031 0
30 -6030 0
10 6023 0
-6023 6032 0
15 -6023 6025 0
-6025 6033 0
20 -6025 6027 0
-6027 6034 0
25 -6027 6029 0
-6029 6035 0
30 -6029 6031 0
-6031 6036 0
35 -6031 0
15 6032 0
20 -6032 6033 0
25 -6033 6034 0
30 -6034 6035 0
35 -6035 6036 0
40 -6036 0
-6 6037 0
-6037 6038 0
-11 -6037 6039 0
-6039 6040 0
-16 -6039 6041 0
-6041 6042 0
-21 -6041 6043 0
-6043 6044 0
-26 -6043 6045 0
-6045 6046 0
-31 -6045 0
-11 6038 0
-6038 6047 0
-16 -6038 6040 0
-6040 6048 0
-21 -6040 6042 0
-6042 6049 0
-26 -6042 6044 0
-6044 6050 0
-31 -6044 6046 0
-6046 6051 0
-36 -6046 0
-16 6047 0
-21 -6047 6048 0
-26 -6048 6049 0
-31 -6049 6050 0
-36 -6050 6051 0
-41 -6051 0
6 6052 0
-6052 6053 0
11 -6052 6054 0
-6054 6055 0
16 -6054 6056 0
-6056 6057 0
21 -6056 6058 0
-6058 6059 0
26 -6058 6060 0
-6060 6061 0
31 -6060 0
11 6053 0
-6053 6062 0
16 -6053 6055 0
-6055 6063 0
21 -6055 6057 0
-6057 6064 0
26 -6057 6059 0
-6059 6065 0
31 -6059 6061 0
-6061 6066 0
36 -6061 0
16 6062 0
21 -6062 6063 0
26 -6063 6064 0
31 -6064 6065 0
36 -6065 6066 0
41 -6066 0
-7 6067 0
-6067 6068 0
-12 -6067 6069 0
-6069 6070 0
-17 -6069 6071 0
-6071 6072 0
-22 -6071 6073 0
-6073 6074 0
-27 -6073 6075 0
-6075 6076 0
-32 -6075 0
-12 6068 0
-6068 6077 0
-17 -6068 6070 0
-6070 6078 0
-22 -6070 6072 0
-6072 6079 0
-27 -6072 6074 0
-6074 6080 0
-32 -6074 6076 0
-6076 6081 0
-37 -6076 0
-17 6077 0
-22 -6077 6078 0
-27 -6078 6079 0
-32 -6079 6080 0
-37 -6080 6081 0
-42 -6081 0
7 6082 0
-6082 6083 0
12 -6082 6084 0
-6084 6085 0
17 -6084 6086 0
-6086 6087 0
22 -6086 6088 0
-6088 6089 0
27 -6088 6090 0
-6090 6091 0
32 -6090 0
12 6083 0
-6083 6092 0
17 -6083 6085 0
-6085 6093 0
22 -6085 6087 0
-6087 6094 0
27 -6087 6089 0
-6089 6095 0
32 -6089 6091 0
-6091 6096 0
37 -6091 0
17 6092 0
22 -6092 6093 0
27 -6093 6094 0
32 -6094 6095 0
37 -6095 6096 0
42 -6096 0
-8 6097 0
-6097 6098 0
-13 -6097 6099 0
-6099 6100 0
-18 -6099 6101 0
-6101 6102 0
-23 -6101 6103 0
-6103 6104 0
-28 -6103 6105 0
-6105 6106 0
-33 -6105 0
-13 6098 0
-6098 6107 0
-18 -6098 6100 0
-6100 6108 0
-23 -6100 6102 0
-6102 6109 0
-28 -6102 6104 0
-6104 6110 0
-33 -6104 6106 0
-6106 6111 0
-38 -6106 0
-18 6107 0
-23 -6107 6108 0
-28 -6108 6109 0
-33 -6109 6110 0
-38 -6110 6111 0
-43 -6111 0
8 6112 0
-6112 6113 0
13 -6112 6114 0
-6114 6115 0
18 -6114 6116 0
-6116 6117 0
23 -6116 6118 0
-6118 6119 0
28 -6118 6120 0
-6120 6121 0
33 -6120 0
13 6113 0
-6113 6122 0
18 -6113 6115 0
-6115 6123 0
23 -6115 6117 0
-6117 6124 0
28 -6117 6119 0
-6119 6125 0
33 -6119 6121 0
-6121 6126 0
38 -6121 0
18 6122 0
23 -6122 6123 0
28 -6123 6124 0
33 -6124 6125 0
38 -6125 6126 0
43 -6126 0
-9 6127 0
-6127 6128 0
-14 -6127 6129 0
-6129 6130 0
-19 -6129 6131 0
-6131 6132 0
-24 -6131 6133 0
-6133 6134 0
-29 -6133 6135 0
-6135 6136 0
-34 -6135 0
-14 6128 0
-6128 6137 0
-19 -6128 6130 0
-6130 6138 0
-24 -6130 6132 0
-6132 6139 0
-29 -6132 6134 0
-6134 6140 0
-34 -6134 6136 0
-6136 6141 0
-39 -6136 0
-19 6137 0
-24 -6137 6138 0
-29 -6138 6139 0
-34 -6139 6140 0
-39 -6140 6141 0
-44 -6141 0
9 6142 0
-6142 6143 0
14 -6142 6144 0
-6144 6145 0
19 -6144 6146 0
-6146 6147 0
24 -6146 6148 0
-6148 6149 0
29 -6148 6150 0
-6150 6151 0
34 -6150 0
14 6143 0
-6143 6152 0
19 -6143 6145 0
-6145 6153 0
24 -6145 6147 0
-6147 6154 0
29 -6147 6149 0
-6149 6155 0
34 -6149 6151 0
-6151 6156 0
39 -6151 0
19 6152 0
24 -6152 6153 0
29 -6153 6154 0
34 -6154 6155 0
39 -6155 6156 0
44 -6156 0
-10 6157 0
-6157 6158 0
-15 -6157 6159 0
-6159 6160 0
-20 -6159 6161 0
-6161 6162 0
-25 -6161 6163 0
-6163 6164 0
-30 -6163 6165 0
-6165 6166 0
-35 -6165 0
-15 6158 0
-6158 6167 0
-20 -6158 6160 0
-6160 6168 0
-25 -6160 6162 0
-6162 6169 0
-30 -6162 6164 0
-6164 6170 0
-35 -6164 6166 0
-6166 6171 0
-40 -6166 0
-20 6167 0
-25 -6167 6168 0
-30 -6168 6169 0
-35 -6169 6170 0
-40 -6170 6171 0
-45 -6171 0
10 6172 0
-6172 6173 0
15 -6172 6174 0
-6174 6175 0
20 -6174 6176 0
-6176 6177 0
25 -6176 6178 0
-6178 6179 0
30 -6178 6180 0
-6180 6181 0
35 -6180 0
15 6173 0
-6173 6182 0
20 -6173 6175 0
-6175 6183 0
25 -6175 6177 0
-6177 6184 0
30 -6177 6179 0
-6179 6185 0
35 -6179 6181 0
-6181 6186 0
40 -6181 0
20 6182 0
25 -6182 6183 0
30 -6183 6184 0
35 -6184 6185 0
40 -6185 6186 0
45 -6186 0
-11 6187 0
-6187 6188 0
-16 -6187 6189 0
-6189 6190 0
-21 -6189 6191 0
-6191 6192 0
-26 -6191 6193 0
-6193 6194 0
-31 -6193 6195 0
-6195 6196 0
-36 -6195 0
-16 6188 0
-6188 6197 0
-21 -6188 6190 0
-6190 6198 0
-26 -6190 6192 0
-6192 6199 0
-31 -6192 6194 0
-6194 6200 0
-36 -6194 6196 0
-6196 6201 0
-41 -6196 0
-21 6197 0
-26 -6197 6198 0
-31 -6198 6199 0
-36 -6199 6200 0
-41 -6200 6201 0
-46 -6201 0
11 6202 0
-6202 6203 0
16 -6202 6204 0
-6204 6205 0
21 -6204 6206 0
-6206 6207 0
26 -6206 6208 0
-6208 6209 0
31 -6208 6210 0
-6210 6211 0
36 -6210 0
16 6203 0
-6203 6212 0
21 -6203 6205 0
-6205 6213 0
26 -6205 6207 0
-6207 6214 0
31 -6207 6209 0
-6209 6215 0
36 -6209 6211 0
-6211 6216 0
41 -6211 0
21 6212 0
26 -6212 6213 0
31 -6213 6214 0
36 -6214 6215 0
41 -6215 6216 0
46 -6216 0
-12 6217 0
-6217 6218 0
-17 -6217 6219 0
-6219 6220 0
-22 -6219 6221 0
-6221 6222 0
-27 -6221 6223 0
-6223 6224 0
-32 -6223 6225 0
-6225 6226 0
-37 -6225 0
-17 6218 0
-6218 6227 0
-22 -6218 6220 0
-6220 6228 0
-27 -6220 6222 0
-6222 6229 0
-32 -6222 6224 0
-6224 6230 0
-37 -6224 6226 0
-6226 6231 0
-42 -6226 0
-22 6227 0
-27 -6227 6228 0
-32 -6228 6229 0
-37 -6229 6230 0
-42 -6230 6231 0
-47 -6231 0
12 6232 0
-6232 6233 0
17 -6232 6234 0
-6234 6235 0
22 -6234 6236 0
-6236 6237 0
27 -6236 6238 0
-6238 6239 0
32 -6238 6240 0
-6240 6241 0
37 -6240 0
17 6233 0
-6233 6242 0
22 -6233 6235 0
-6235 6243 0
27 -6235 6237 0
-6237 6244 0
32 -6237 6239 0
-6239 6245 0
37 -6239 6241 0
-6241 6246 0
42 -6241 0
22 6242 0
27 -6242 6243 0
32 -6243 6244 0
37 -6244 6245 0
42 -6245 6246 0
47 -6246 0
-13 6247 0
-6247 6248 0
-18 -6247 6249 0
-6249 6250 0
-23 -6249 6251 0
-6251 6252 0
-28 -6251 6253 0
-6253 6254 0
-33 -6253 6255 0
-6255 6256 0
-38 -6255 0
-18 6248 0
-6248 6257 0
-23 -6248 6250 0
-6250 6258 0
-28 -6250 6252 0
-6252 6259 0
-33 -6252 6254 0
-6254 6260 0
-38 -6254 6256 0
-6256 6261 0
-43 -6256 0
-23 6257 0
-28 -6257 6258 0
-33 -6258 6259 0
-38 -6259 6260 0
-43 -6260 6261 0
-48 -6261 0
13 6262 0
-6262 6263 0
18 -6262 6264 0
-6264 6265 0
23 -6264 6266 0
-6266 6267 0
28 -6266 6268 0
-6268 6269 0
33 -6268 6270 0
-6270 6271 0
38 -6270 0
18 6263 0
-6263 6272 0
23 -6263 6265 0
-6265 6273 0
28 -6265 6267 0
-6267 6274 0
33 -6267 6269 0
-6269 6275 0
38 -6269 6271 0
-6271 6276 0
43 -6271 0
23 6272 0
28 -6272 6273 0
33 -6273 6274 0
38 -6274 6275 0
43 -6275 6276 0
48 -6276 0
-14 6277 0
-6277 6278 0
-19 -6277 6279 0
-6279 6280 0
-24 -6279 6281 0
-6281 6282 0
-29 -6281 6283 0
-6283 6284 0
-34 -6283 6285 0
-6285 6286 0
-39 -6285 0
-19 6278 0
-6278 6287 0
-24 -6278 6280 0
-6280 6288 0
-29 -6280 6282 0
-6282 6289 0
-34 -6282 6284 0
-6284 6290 0
-39 -6284 6286 0
-6286 6291 0
-44 -6286 0
-24 6287 0
-29 -6287 6288 0
-34 -6288 6289 0
-39 -6289 6290 0
-44 -6290 6291 0
-49 -6291 0
14 6292 0
-6292 6293 0
19 -6292 6294 0
-6294 6295 0
24 -6294 6296 0
-6296 6297 0
29 -6296 6298 0
-6298 6299 0
34 -6298 6300 0
-6300 6301 0
39 -6300 0
19 6293 0
-6293 6302 0
24 -6293 6295 0
-6295 6303 0
29 -6295 6297 0
-6297 6304 0
34 -6297 6299 0
-6299 6305 0
39 -6299 6301 0
-6301 6306 0
44 -6301 0
24 6302 0
29 -6302 6303 0
34 -6303 6304 0
39 -6304 6305 0
44 -6305 6306 0
49 -6306 0
-15 6307 0
-6307 6308 0
-20 -6307 6309 0
-6309 6310 0
-25 -6309 6311 0
-6311 6312 0
-30 -6311 6313 0
-6313 6314 0
-35 -6313 6315 0
-6315 6316 0
-40 -6315 0
-20 6308 0
-6308 6317 0
-25 -6308 6310 0
-6310 6318 0
-30 -6310 6312 0
-6312 6319 0
-35 -6312 6314 0
-6314 6320 0
-40 -6314 6316 0
-6316 6321 0
-45 -6316 0
-25 6317 0
-30 -6317 6318 0
-35 -6318 6319 0
-40 -6319 6320 0
-45 -6320 6321 0
-50 -6321 0
15 6322 0
-6322 6323 0
20 -6322 6324 0
-6324 6325 0
25 -6324 6326 0
-6326 6327 0
30 -6326 6328 0
-6328 6329 0
35 -6328 6330 0
-6330 6331 0
40 -6330 0
20 6323 0
-6323 6332 0
25 -6323 6325 0
-6325 6333 0
30 -6325 6327 0
-6327 6334 0
35 -6327 6329 0
-6329 6335 0
40 -6329 6331 0
-6331 6336 0
45 -6331 0
25 6332 0
30 -6332 6333 0
35 -6333 6334 0
40 -6334 6335 0
45 -6335 6336 0
50 -6336 0
-16 6337 0
-6337 6338 0
-21 -6337 6339 0
-6339 6340 0
-26 -6339 6341 0
-6341 6342 0
-31 -6341 6343 0
-6343 6344 0
-36 -6343 6345 0
-6345 6346 0
-41 -6345 0
-21 6338 0
-6338 6347 0
-26 -6338 6340 0
-6340 6348 0
-31 -6340 6342 0
-6342 6349 0
-36 -6342 6344 0
-6344 6350 0
-41 -6344 6346 0
-6346 6351 0
-46 -6346 0
-26 6347 0
-31 -6347 6348 0
-36 -6348 6349 0
-41 -6349 6350 0
-46 -6350 6351 0
-51 -6351 0
16 6352 0
-6352 6353 0
21 -6352 6354 0
-6354 6355 0
26 -6354 6356 0
-6356 6357 0
31 -6356 6358 0
-6358 6359 0
36 -6358 6360 0
-6360 6361 0
41 -6360 0
21 6353 0
-6353 6362 0
26 -6353 6355 0
-6355 6363 0
31 -6355 6357 0
-6357 6364 0
36 -6357 6359 0
-6359 6365 0
41 -6359 6361 0
-6361 6366 0
46 -6361 0
26 6362 0
31 -6362 6363 0
36 -6363 6364 0
41 -6364 6365 0
46 -6365 6366 0
51 -6366 0
-17 6367 0
-6367 6368 0
-22 -6367 6369 0
-6369 6370 0
-27 -6369 6371 0
-6371 6372 0
-32 -6371 6373 0
-6373 6374 0
-37 -6373 6375 0
-6375 6376 0
-42 -6375 0
-22 6368 0
-6368 6377 0
-27 -6368 6370 0
-6370 6378 0
-32 -6370 6372 0
-6372 6379 0
-37 -6372 6374 0
-6374 6380 0
-42 -6374 6376 0
-6376 6381 0
-47 -6376 0
-27 6377 0
-32 -6377 6378 0
-37 -6378 6379 0
-42 -6379 6380 0
-47 -6380 6381 0
-52 -6381 0
17 6382 0
-6382 6383 0
22 -6382 6384 0
-6384 6385 0
27 -6384 6386 0
-6386 6387 0
32 -6386 6388 0
-6388 6389 0
37 -6388 6390 0
-6390 6391 0
42 -6390 0
22 6383 0
-6383 6392 0
27 -6383 6385 0
-6385 6393 0
32 -6385 6387 0
-6387 6394 0
37 -6387 6389 0
-6389 6395 0
42 -6389 6391 0
-6391 6396 0
47 -6391 0
27 6392 0
32 -6392 6393 0
37 -6393 6394 0
42 -6394 6395 0
47 -6395 6396 0
52 -6396 0
-18 6397 0
-6397 6398 0
-23 -6397 6399 0
-6399 6400 0
-28 -6399 6401 0
-6401 6402 0
-33 -6401 6403 0
-6403 6404 0
-38 -6403 6405 0
-6405 6406 0
-43 -6405 0
-23 6398 0
-6398 6407 0
-28 -6398 6400 0
-6400 6408 0
-33 -6400 6402 0
-6402 6409 0
-38 -6402 6404 0
-6404 6410 0
-43 -6404 6406 0
-6406 6411 0
-48 -6406 0
-28 6407 0
-33 -6407 6408 0
-38 -6408 6409 0
-43 -6409 6410 0
-48 -6410 6411 0
-53 -6411 0
18 6412 0
-6412 6413 0
23 -6412 6414 0
-6414 6415 0
28 -6414 6416 0
-6416 6417 0
33 -6416 6418 0
-6418 6419 0
38 -6418 6420 0
-6420 6421 0
43 -6420 0
23 6413 0
-6413 6422 0
28 -6413 6415 0
-6415 6423 0
33 -6415 6417 0
-6417 6424 0
38 -6417 6419 0
-6419 6425 0
43 -6419 6421 0
-6421 6426 0
48 -6421 0
28 6422 0
33 -6422 6423 0
38 -6423 6424 0
43 -6424 6425 0
48 -6425 6426 0
53 -6426 0
-19 6427 0
-6427 6428 0
-24 -6427 6429 0
-6429 6430 0
-29 -6429 6431 0
-6431 6432 0
-34 -6431 6433 0
-6433 6434 0
-39 -6433 6435 0
-6435 6436 0
-44 -6435 0
-24 6428 0
-6428 6437 0
-29 -6428 6430 0
-6430 6438 0
-34 -6430 6432 0
-6432 6439 0
-39 -6432 6434 0
-6434 6440 0
-44 -6434 6436 0
-6436 6441 0
-49 -6436 0
-29 6437 0
-34 -6437 6438 0
-39 -6438 6439 0
-44 -6439 6440 0
-49 -6440 6441 0
-54 -6441 0
19 6442 0
-6442 6443 0
24 -6442 6444 0
-6444 6445 0
29 -6444 6446 0
-6446 6447 0
34 -6446 6448 0
-6448 6449 0
39 -6448 6450 0
-6450 6451 0
44 -6450 0
24 6443 0
-6443 6452 0
29 -6443 6445 0
-6445 6453 0
34 -6445 6447 0
-6447 6454 0
39 -6447 6449 0
-6449 6455 0
44 -6449 6451 0
-6451 6456 0
49 -6451 0
29 6452 0
34 -6452 6453 0
39 -6453 6454 0
44 -6454 6455 0
49 -6455 6456 0
54 -6456 0
-20 6457 0
-6457 6458 0
-25 -6457 6459 0
-6459 6460 0
-30 -6459 6461 0
-6461 6462 0
-35 -6461 6463 0
-6463 6464 0
-40 -6463 6465 0
-6465 6466 0
-45 -6465 0
-25 6458 0
-6458 6467 0
-30 -6458 6460 0
-6460 6468 0
-35 -6460 6462 0
-6462 6469 0
-40 -6462 6464 0
-6464 6470 0
-45 -6464 6466 0
-6466 6471 0
-50 -6466 0
-30 6467 0
-35 -6467 6468 0
-40 -6468 6469 0
-45 -6469 6470 0
-50 -6470 6471 0
-55 -6471 0
20 6472 0
-6472 6473 0
25 -6472 6474 0
-6474 6475 0
30 -6474 6476 0
-6476 6477 0
35 -6476 6478 0
-6478 6479 0
40 -6478 6480 0
-6480 6481 0
45 -6480 0
25 6473 0
-6473 6482 0
30 -6473 6475 0
-6475 6483 0
35 -6475 6477 0
-6477 6484 0
40 -6477 6479 0
-6479 6485 0
45 -6479 6481 0
-6481 6486 0
50 -6481 0
30 6482 0
35 -6482 6483 0
40 -6483 6484 0
45 -6484 6485 0
50 -6485 6486 0
55 -6486 0
-21 6487 0
-6487 6488 0
-26 -6487 6489 0
-6489 6490 0
-31 -6489 6491 0
-6491 6492 0
-36 -6491 6493 0
-6493 6494 0
-41 -6493 6495 0
-6495 6496 0
-46 -6495 0
-26 6488 0
-6488 6497 0
-31 -6488 6490 0
-6490 6498 0
-36 -6490 6492 0
-6492 6499 0
-41 -6492 6494 0
-6494 6500 0
-46 -6494 6496 0
-6496 6501 0
-51 -6496 0
-31 6497 0
-36 -6497 6498 0
-41 -6498 6499 0
-46 -6499 6500 0
-51 -6500 6501 0
-56 -6501 0
21 6502 0
-6502 6503 0
26 -6502 6504 0
-6504 6505 0
31 -6504 6506 0
-6506 6507 0
36 -6506 6508 0
-6508 6509 0
41 -6508 6510 0
-6510 6511 0
46 -6510 0
26 6503 0
-6503 6512 0
31 -6503 6505 0
-6505 6513 0
36 -6505 6507 0
-6507 6514 0
41 -6507 6509 0
-6509 6515 0
46 -6509 6511 0
-6511 6516 0
51 -6511 0
31 6512 0
36 -6512 6513 0
41 -6513 6514 0
46 -6514 6515 0
51 -6515 6516 0
56 -6516 0
-22 6517 0
-6517 6518 0
-27 -6517 6519 0
-6519 6520 0
-32 -6519 6521 0
-6521 6522 0
-37 -6521 6523 0
-6523 6524 0
-42 -6523 6525 0
-6525 6526 0
-47 -6525 0
-27 6518 0
-6518 6527 0
-32 -6518 6520 0
-6520 6528 0
-37 -6520 6522 0
-6522 6529 0
-42 -6522 6524 0
-6524 6530 0
-47 -6524 6526 0
-6526 6531 0
-52 -6526 0
-32 6527 0
-37 -6527 6528 0
-42 -6528 6529 0
-47 -6529 6530 0
-52 -6530 6531 0
-57 -6531 0
22 6532 0
-6532 6533 0
27 -6532 6534 0
-6534 6535 0
32 -6534 6536 0
-6536 6537 0
37 -6536 6538 0
-6538 6539 0
42 -6538 6540 0
-6540 6541 0
47 -6540 0
27 6533 0
-6533 6542 0
32 -6533 6535 0
-6535 6543 0
37 -6535 6537 0
-6537 6544 0
42 -6537 6539 0
-6539 6545 0
47 -6539 6541 0
-6541 6546 0
52 -6541 0
32 6542 0
37 -6542 6543 0
42 -6543 6544 0
47 -6544 6545 0
52 -6545 6546 0
57 -6546 0
-23 6547 0
-6547 6548 0
-28 -6547 6549 0
-6549 6550 0
-33 -6549 6551 0
-6551 6552 0
-38 -6551 6553 0
-6553 6554 0
-43 -6553 6555 0
-6555 6556 0
-48 -6555 0
-28 6548 0
-6548 6557 0
-33 -6548 6550 0
-6550 6558 0
-38 -6550 6552 0
-6552 6559 0
-43 -6552 6554 0
-6554 6560 0
-48 -6554 6556 0
-6556 6561 0
-53 -6556 0
-33 6557 0
-38 -6557 6558 0
-43 -6558 6559 0
-48 -6559 6560 0
-53 -6560 6561 0
-58 -6561 0
23 6562 0
-6562 6563 0
28 -6562 6564 0
-6564 6565 0
33 -6564 6566 0
-6566 6567 0
38 -6566 6568 0
-6568 6569 0
43 -6568 6570 0
-6570 6571 0
48 -6570 0
28 6563 0
-6563 6572 0
33 -6563 6565 0
-6565 6573 0
38 -6565 6567 0
-6567 6574 0
43 -6567 6569 0
-6569 6575 0
48 -6569 6571 0
-6571 6576 0
53 -6571 0
33 6572 0
38 -6572 6573 0
43 -6573 6574 0
48 -6574 6575 0
53 -6575 6576 0
58 -6576 0
-24 6577 0
-6577 6578 0
-29 -6577 6579 0
-6579 6580 0
-34 -6579 6581 0
-6581 6582 0
-39 -6581 6583 0
-6583 6584 0
-44 -6583 6585 0
-6585 6586 0
-49 -6585 0
-29 6578 0
-6578 6587 0
-34 -6578 6580 0
-6580 6588 0
-39 -6580 6582 0
-6582 6589 0
-44 -6582 6584 0
-6584 6590 0
-49 -6584 6586 0
-6586 6591 0
-54 -6586 0
-34 6587 0
-39 -6587 6588 0
-44 -6588 6589 0
-49 -6589 6590 0
-54 -6590 6591 0
-59 -6591 0
24 6592 0
-6592 6593 0
29 -6592 6594 0
-6594 6595 0
34 -6594 6596 0
-6596 6597 0
39 -6596 6598 0
-6598 6599 0
44 -6598 6600 0
-6600 6601 0
49 -6600 0
29 6593 0
-6593 6602 0
34 -6593 6595 0
-6595 6603 0
39 -6595 6597 0
-6597 6604 0
44 -6597 6599 0
-6599 6605 0
49 -6599 6601 0
-6601 6606 0
54 -6601 0
34 6602 0
39 -6602 6603 0
44 -6603 6604 0
49 -6604 6605 0
54 -6605 6606 0
59 -6606 0
-25 6607 0
-6607 6608 0
-30 -6607 6609 0
-6609 6610 0
-35 -6609 6611 0
-6611 6612 0
-40 -6611 6613 0
-6613 6614 0
-45 -6613 6615 0
-6615 6616 0
-50 -6615 0
-30 6608 0
-6608 6617 0
-35 -6608 6610 0
-6610 6618 0
-40 -6610 6612 0
-6612 6619 0
-45 -6612 6614 0
-6614 6620 0
-50 -6614 6616 0
-6616 6621 0
-55 -6616 0
-35 6617 0
-40 -6617 6618 0
-45 -6618 6619 0
-50 -6619 6620 0
-55 -6620 6621 0
-60 -6621 0
25 6622 0
-6622 6623 0
30 -6622 6624 0
-6624 6625 0
35 -6624 6626 0
-6626 6627 0
40 -6626 6628 0
-6628 6629 0
45 -6628 6630 0
-6630 6631 0
50 -6630 0
30 6623 0
-6623 6632 0
35 -6623 6625 0
-6625 6633 0
40 -6625 6627 0
-6627 6634 0
45 -6627 6629 0
-6629 6635 0
50 -6629 6631 0
-6631 6636 0
55 -6631 0
35 6632 0
40 -6632 6633 0
45 -6633 6634 0
50 -6634 6635 0
55 -6635 6636 0
60 -6636 0
-26 6637 0
-6637 6638 0
-31 -6637 6639 0
-6639 6640 0
-36 -6639 6641 0
-6641 6642 0
-41 -6641 6643 0
-6643 6644 0
-46 -6643 6645 0
-6645 6646 0
-51 -6645 0
-31 6638 0
-6638 6647 0
-36 -6638 6640 0
-6640 6648 0
-41 -6640 6642 0
-6642 6649 0
-46 -6642 6644 0
-6644 6650 0
-51 -6644 6646 0
-6646 6651 0
-56 -6646 0
-36 6647 0
-41 -6647 6648 0
-46 -6648 6649 0
-51 -6649 6650 0
-56 -6650 6651 0
-61 -6651 0
26 6652 0
-6652 6653 0
31 -6652 6654 0
-6654 6655 0
36 -6654 6656 0
-6656 6657 0
41 -6656 6658 0
-6658 6659 0
46 -6658 6660 0
-6660 6661 0
51 -6660 0
31 6653 0
-6653 6662 0
36 -6653 6655 0
-6655 6663 0
41 -6655 6657 0
-6657 6664 0
46 -6657 6659 0
-6659 6665 0
51 -6659 6661 0
-6661 6666 0
56 -6661 0
36 6662 0
41 -6662 6663 0
46 -6663 6664 0
51 -6664 6665 0
56 -6665 6666 0
61 -6666 0
-27 6667 0
-6667 6668 0
-32 -6667 6669 0
-6669 6670 0
-37 -6669 6671 0
-6671 6672 0
-42 -6671 6673 0
-6673 6674 0
-47 -6673 6675 0
-6675 6676 0
-52 -6675 0
-32 6668 0
-6668 6677 0
-37 -6668 6670 0
-6670 6678 0
-42 -6670 6672 0
-6672 6679 0
-47 -6672 6674 0
-6674 6680 0
-52 -6674 6676 0
-6676 6681 0
-57 -6676 0
-37 6677 0
-42 -6677 6678 0
-47 -6678 6679 0
-52 -6679 6680 0
-57 -6680 6681 0
-62 -6681 0
27 6682 0
-6682 6683 0
32 -6682 6684 0
-6684 6685 0
37 -6684 6686 0
-6686 6687 0
42 -6686 6688 0
-6688 6689 0
47 -6688 6690 0
-6690 6691 0
52 -6690 0
32 6683 0
-6683 6692 0
37 -6683 6685 0
-6685 6693 0
42 -6685 6687 0
-6687 6694 0
47 -6687 6689 0
-6689 6695 0
52 -6689 6691 0
-6691 6696 0
57 -6691 0
37 6692 0
42 -6692 6693 0
47 -6693 6694 0
52 -6694 6695 0
57 -6695 6696 0
62 -6696 0
-28 6697 0
-6697 6698 0
-33 -6697 6699 0
-6699 6700 0
-38 -6699 6701 0
-6701 6702 0
-43 -6701 6703 0
-6703 6704 0
-48 -6703 6705 0
-6705 6706 0
-53 -6705 0
-33 6698 0
-6698 6707 0
-38 -6698 6700 0
-6700 6708 0
-43 -6700 6702 0
-6702 6709 0
-48 -6702 6704 0
-6704 6710 0
-53 -6704 6706 0
-6706 6711 0
-58 -6706 0
-38 6707 0
-43 -6707 6708 0
-48 -6708 6709 0
-53 -6709 6710 0
-58 -6710 6711 0
-63 -6711 0
28 6712 0
-6712 6713 0
33 -6712 6714 0
-6714 6715 0
38 -6714 6716 0
-6716 6717 0
43 -6716 6718 0
-6718 6719 0
48 -6718 6720 0
-6720 6721 0
53 -6720 0
33 6713 0
-6713 6722 0
38 -6713 6715 0
-6715 6723 0
43 -6715 6717 0
-6717 6724 0
48 -6717 6719 0
-6719 6725 0
53 -6719 6721 0
-6721 6726 0
58 -6721 0
38 6722 0
43 -6722 6723 0
48 -6723 6724 0
53 -6724 6725 0
58 -6725 6726 0
63 -6726 0
-29 6727 0
-6727 6728 0
-34 -6727 6729 0
-6729 6730 0
-39 -6729 6731 0
-6731 6732 0
-44 -6731 6733 0
-6733 6734 0
-49 -6733 6735 0
-6735 6736 0
-54 -6735 0
-34 6728 0
-6728 6737 0
-39 -6728 6730 0
-6730 6738 0
-44 -6730 6732 0
-6732 6739 0
-49 -6732 6734 0
-6734 6740 0
-54 -6734 6736 0
-6736 6741 0
-59 -6736 0
-39 6737 0
-44 -6737 6738 0
-49 -6738 6739 0
-54 -6739 6740 0
-59 -6740 6741 0
-64 -6741 0
29 6742 0
-6742 6743 0
34 -6742 6744 0
-6744 6745 0
39 -6744 6746 0
-6746 6747 0
44 -6746 6748 0
-6748 6749 0
49 -6748 6750 0
-6750 6751 0
54 -6750 0
34 6743 0
-6743 6752 0
39 -6743 6745 0
-6745 6753 0
44 -6745 6747 0
-6747 6754 0
49 -6747 6749 0
-6749 6755 0
54 -6749 6751 0
-6751 6756 0
59 -6751 0
39 6752 0
44 -6752 6753 0
49 -6753 6754 0
54 -6754 6755 0
59 -6755 6756 0
64 -6756 0
-30 6757 0
-6757 6758 0
-35 -6757 6759 0
-6759 6760 0
-40 -6759 6761 0
-6761 6762 0
-45 -6761 6763 0
-6763 6764 0
-50 -6763 6765 0
-6765 6766 0
-55 -6765 0
-35 6758 0
-6758 6767 0
-40 -6758 6760 0
-6760 6768 0
-45 -6760 6762 0
-6762 6769 0
-50 -6762 6764 0
-6764 6770 0
-55 -6764 6766 0
-6766 6771 0
-60 -6766 0
-40 6767 0
-45 -6767 6768 0
-50 -6768 6769 0
-55 -6769 6770 0
-60 -6770 6771 0
-65 -6771 0
30 6772 0
-6772 6773 0
35 -6772 6774 0
-6774 6775 0
40 -6774 6776 0
-6776 6777 0
45 -6776 6778 0
-6778 6779 0
50 -6778 6780 0
-6780 6781 0
55 -6780 0
35 6773 0
-6773 6782 0
40 -6773 6775 0
-6775 6783 0
45 -6775 6777 0
-6777 6784 0
50 -6777 6779 0
-6779 6785 0
55 -6779 6781 0
-6781 6786 0
60 -6781 0
40 6782 0
45 -6782 6783 0
50 -6783 6784 0
55 -6784 6785 0
60 -6785 6786 0
65 -6786 0
-31 6787 0
-6787 6788 0
-36 -6787 6789 0
-6789 6790 0
-41 -6789 6791 0
-6791 6792 0
-46 -6791 6793 0
-6793 6794 0
-51 -6793 6795 0
-6795 6796 0
-56 -6795 0
-36 6788 0
-6788 6797 0
-41 -6788 6790 0
-6790 6798 0
-46 -6790 6792 0
-6792 6799 0
-51 -6792 6794 0
-6794 6800 0
-56 -6794 6796 0
-6796 6801 0
-61 -6796 0
-41 6797 0
-46 -6797 6798 0
-51 -6798 6799 0
-56 -6799 6800 0
-61 -6800 6801 0
-66 -6801 0
31 6802 0
-6802 6803 0
36 -6802 6804 0
-6804 6805 0
41 -6804 6806 0
-6806 6807 0
46 -6806 6808 0
-6808 6809 0
51 -6808 6810 0
-6810 6811 0
56 -6810 0
36 6803 0
-6803 6812 0
41 -6803 6805 0
-6805 6813 0
46 -6805 6807 0
-6807 6814 0
51 -6807 6809 0
-6809 6815 0
56 -6809 6811 0
-6811 6816 0
61 -6811 0
41 6812 0
46 -6812 6813 0
51 -6813 6814 0
56 -6814 6815 0
61 -6815 6816 0
66 -6816 0
-1 6817 0
-6817 6818 0
-7 -6817 6819 0
-6819 6820 0
-13 -6819 6821 0
-6821 6822 0
-19 -6821 6823 0
-6823 6824 0
-25 -6823 6825 0
-6825 6826 0
-31 -6825 0
-7 6818 0
-6818 6827 0
-13 -6818 6820 0
-6820 6828 0
-19 -6820 6822 0
-6822 6829 0
-25 -6822 6824 0
-6824 6830 0
-31 -6824 6826 0
-6826 6831 0
-37 -6826 0
-13 6827 0
-19 -6827 6828 0
-25 -6828 6829 0
-31 -6829 6830 0
-37 -6830 6831 0
-43 -6831 0
1 6832 0
-6832 6833 0
7 -6832 6834 0
-6834 6835 0
13 -6834 6836 0
-6836 6837 0
19 -6836 6838 0
-6838 6839 0
25 -6838 6840 0
-6840 6841 0
31 -6840 0
7 6833 0
-6833 6842 0
13 -6833 6835 0
-6835 6843 0
19 -6835 6837 0
-6837 6844 0
25 -6837 6839 0
-6839 6845 0
31 -6839 6841 0
-6841 6846 0
37 -6841 0
13 6842 0
19 -6842 6843 0
25 -6843 6844 0
31 -6844 6845 0
37 -6845 6846 0
43 -6846 0
-2 6847 0
-6847 6848 0
-8 -6847 6849 0
-6849 6850 0
-14 -6849 6851 0
-6851 6852 0
-20 -6851 6853 0
-6853 6854 0
-26 -6853 6855 0
-6855 6856 0
-32 -6855 0
-8 6848 0
-6848 6857 0
-14 -6848 6850 0
-6850 6858 0
-20 -6850 6852 0
-6852 6859 0
-26 -6852 6854 0
-6854 6860 0
-32 -6854 6856 0
-6856 6861 0
-38 -6856 0
-14 6857 0
-20 -6857 6858 0
-26 -6858 6859 0
-32 -6859 6860 0
-38 -6860 6861 0
-44 -6861 0
2 6862 0
-6862 6863 0
8 -6862 6864 0
-6864 6865 0
14 -6864 6866 0
-6866 6867 0
20 -6866 6868 0
-6868 6869 0
26 -6868 6870 0
-6870 6871 0
32 -6870 0
8 6863 0
-6863 6872 0
14 -6863 6865 0
-6865 6873 0
20 -6865 6867 0
-6867 6874 0
26 -6867 6869 0
-6869 6875 0
32 -6869 6871 0
-6871 6876 0
38 -6871 0
14 6872 0
20 -6872 6873 0
26 -6873 6874 0
32 -6874 6875 0
38 -6875 6876 0
44 -6876 0
-3 6877 0
-6877 6878 0
-9 -6877 6879 0
-6879 6880 0
-15 -6879 6881 0
-6881 6882 0
-21 -6881 6883 0
-6883 6884 0
-27 -6883 6885 0
-6885 6886 0
-33 -6885 0
-9 6878 0
-6878 6887 0
-15 -6878 6880 0
-6880 6888 0
-21 -6880 6882 0
-6882 6889 0
-27 -6882 6884 0
-6884 6890 0
-33 -6884 6886 0
-6886 6891 0
-39 -6886 0
-15 6887 0
-21 -6887 6888 0
-27 -6888 6889 0
-33 -6889 6890 0
-39 -6890 6891 0
-45 -6891 0
3 6892 0
-6892 6893 0
9 -6892 6894 0
-6894 6895 0
15 -6894 6896 0
-6896 6897 0
21 -6896 6898 0
-6898 6899 0
27 -6898 6900 0
-6900 6901 0
33 -6900 0
9 6893 0
-6893 6902 0
15 -6893 6895 0
-6895 6903 0
21 -6895 6897 0
-6897 6904 0
27 -6897 6899 0
-6899 6905 0
33 -6899 6901 0
-6901 6906 0
39 -6901 0
15 6902 0
21 -6902 6903 0
27 -6903 6904 0
33 -6904 6905 0
39 -6905 6906 0
45 -6906 0
-4 6907 0
-6907 6908 0
-10 -6907 6909 0
-6909 6910 0
-16 -6909 6911 0
-6911 6912 0
-22 -6911 6913 0
-6913 6914 0
-28 -6913 6915 0
-6915 6916 0
-34 -6915 0
-10 6908 0
-6908 6917 0
-16 -6908 6910 0
-6910 6918 0
-22 -6910 6912 0
-6912 6919 0
-28 -6912 6914 0
-6914 6920 0
-34 -6914 6916 0
-6916 6921 0
-40 -6916 0
-16 6917 0
-22 -6917 6918 0
-28 -6918 6919 0
-34 -6919 6920 0
-40 -6920 6921 0
-46 -6921 0
4 6922 0
-6922 6923 0
10 -6922 6924 0
-6924 6925 0
16 -6924 6926 0
-6926 6927 0
22 -6926 6928 0
-6928 6929 0
28 -6928 6930 0
-6930 6931 0
34 -6930 0
10 6923 0
-6923 6932 0
16 -6923 6925 0
-6925 6933 0
22 -6925 6927 0
-6927 6934 0
28 -6927 6929 0
-6929 6935 0
34 -6929 6931 0
-6931 6936 0
40 -6931 0
16 6932 0
22 -6932 6933 0
28 -6933 6934 0
34 -6934 6935 0
40 -6935 6936 0
46 -6936 0
-5 6937 0
-6937 6938 0
-11 -6937 6939 0
-6939 6940 0
-17 -6939 6941 0
-6941 6942 0
-23 -6941 6943 0
-6943 6944 0
-29 -6943 6945 0
-6945 6946 0
-35 -6945 0
-11 6938 0
-6938 6947 0
-17 -6938 6940 0
-6940 6948 0
-23 -6940 6942 0
-6942 6949 0
-29 -6942 6944 0
-6944 6950 0
-35 -6944 6946 0
-6946 6951 0
-41 -6946 0
-17 6947 0
-23 -6947 6948 0
-29 -6948 6949 0
-35 -6949 6950 0
-41 -6950 6951 0
-47 -6951 0
5 6952 0
-6952 6953 0
11 -6952 6954 0
-6954 6955 0
17 -6954 6956 0
-6956 6957 0
23 -6956 6958 0
-6958 6959 0
29 -6958 6960 0
-6960 6961 0
35 -6960 0
11 6953 0
-6953 6962 0
17 -6953 6955 0
-6955 6963 0
23 -6955 6957 0
-6957 6964 0
29 -6957 6959 0
-6959 6965 0
35 -6959 6961 0
-6961 6966 0
41 -6961 0
17 6962 0
23 -6962 6963 0
29 -6963 6964 0
35 -6964 6965 0
41 -6965 6966 0
47 -6966 0
-6 6967 0
-6967 6968 0
-12 -6967 6969 0
-6969 6970 0
-18 -6969 6971 0
-6971 6972 0
-24 -6971 6973 0
-6973 6974 0
-30 -6973 6975 0
-6975 6976 0
-36 -6975 0
-12 6968 0
-6968 6977 0
-18 -6968 6970 0
-6970 6978 0
-24 -6970 6972 0
-6972 6979 0
-30 -6972 6974 0
-6974 6980 0
-36 -6974 6976 0
-6976 6981 0
-42 -6976 0
-18 6977 0
-24 -6977 6978 0
-30 -6978 6979 0
-36 -6979 6980 0
-42 -6980 6981 0
-48 -6981 0
6 6982 0
-6982 6983 0
12 -6982 6984 0
-6984 6985 0
18 -6984 6986 0
-6986 6987 0
24 -6986 6988 0
-6988 6989 0
30 -6988 6990 0
-6990 6991 0
36 -6990 0
12 6983 0
-6983 6992 0
18 -6983 6985 0
-6985 6993 0
24 -6985 6987 0
-6987 6994 0
30 -6987 6989 0
-6989 6995 0
36 -6989 6991 0
-6991 6996 0
42 -6991 0
18 6992 0
24 -6992 6993 0
30 -6993 6994 0
36 -6994 6995 0
42 -6995 6996 0
48 -6996 0
-7 6997 0
-6997 6998 0
-13 -6997 6999 0
-6999 7000 0
-19 -6999 7001 0
-7001 7002 0
-25 -7001 7003 0
-7003 7004 0
-31 -7003 7005 0
-7005 7006 0
-37 -7005 0
-13 6998 0
-6998 7007 0
-19 -6998 7000 0
-7000 7008 0
-25 -7000 7002 0
-7002 7009 0
-31 -7002 7004 0
-7004 7010 0
-37 -7004 7006 0
-7006 7011 0
-43 -7006 0
-19 7007 0
-25 -7007 7008 0
-31 -7008 7009 0
-37 -7009 7010 0
-43 -7010 7011 0
-49 -7011 0
7 7012 0
-7012 7013 0
13 -7012 7014 0
-7014 7015 0
19 -7014 7016 0
-7016 7017 0
25 -7016 7018 0
-7018 7019 0
31 -7018 7020 0
-7020 7021 0
37 -7020 0
13 7013 0
-7013 7022 0
19 -7013 7015 0
-7015 7023 0
25 -7015 7017 0
-7017 7024 0
31 -7017 7019 0
-7019 7025 0
37 -7019 7021 0
-7021 7026 0
43 -7021 0
19 7022 0
25 -7022 7023 0
31 -7023 7024 0
37 -7024 7025 0
43 -7025 7026 0
49 -7026 0
-8 7027 0
-7027 7028 0
-14 -7027 7029 0
-7029 7030 0
-20 -7029 7031 0
-7031 7032 0
-26 -7031 7033 0
-7033 7034 0
-32 -7033 7035 0
-7035 7036 0
-38 -7035 0
-14 7028 0
-7028 7037 0
-20 -7028 7030 0
-7030 7038 0
-26 -7030 7032 0
-7032 7039 0
-32 -7032 7034 0
-7034 7040 0
-38 -7034 7036 0
-7036 7041 0
-44 -7036 0
-20 7037 0
-26 -7037 7038 0
-32 -7038 7039 0
-38 -7039 7040 0
-44 -7040 7041 0
-50 -7041 0
8 7042 0
-7042 7043 0
14 -7042 7044 0
-7044 7045 0
20 -7044 7046 0
-7046 7047 0
26 -7046 7048 0
-7048 7049 0
32 -7048 7050 0
-7050 7051 0
38 -7050 0
14 7043 0
-7043 7052 0
20 -7043 7045 0
-7045 7053 0
26 -7045 7047 0
-7047 7054 0
32 -7047 7049 0
-7049 7055 0
38 -7049 7051 0
-7051 7056 0
44 -7051 0
20 7052 0
26 -7052 7053 0
32 -7053 7054 0
38 -7054 7055 0
44 -7055 7056 0
50 -7056 0
-9 7057 0
-7057 7058 0
-15 -7057 7059 0
-7059 7060 0
-21 -7059 7061 0
-7061 7062 0
-27 -7061 7063 0
-7063 7064 0
-33 -7063 7065 0
-7065 7066 0
-39 -7065 0
-15 7058 0
-7058 7067 0
-21 -7058 7060 0
-7060 7068 0
-27 -7060 7062 0
-7062 7069 0
-33 -7062 7064 0
-7064 7070 0
-39 -7064 7066 0
-7066 7071 0
-45 -7066 0
-21 7067 0
-27 -7067 7068 0
-33 -7068 7069 0
-39 -7069 7070 0
-45 -7070 7071 0
-51 -7071 0
9 7072 0
-7072 7073 0
15 -7072 7074 0
-7074 7075 0
21 -7074 7076 0
-7076 7077 0
27 -7076 7078 0
-7078 7079 0
33 -7078 7080 0
-7080 7081 0
39 -7080 0
15 7073 0
-7073 7082 0
21 -7073 7075 0
-7075 7083 0
27 -7075 7077 0
-7077 7084 0
33 -7077 7079 0
-7079 7085 0
39 -7079 7081 0
-7081 7086 0
45 -7081 0
21 7082 0
27 -7082 7083 0
33 -7083 7084 0
39 -7084 7085 0
45 -7085 7086 0
51 -7086 0
-10 7087 0
-7087 7088 0
-16 -7087 7089 0
-7089 7090 0
-22 -7089 7091 0
-7091 7092 0
-28 -7091 7093 0
-7093 7094 0
-34 -7093 7095 0
-7095 7096 0
-40 -7095 0
-16 7088 0
-7088 7097 0
-22 -7088 7090 0
-7090 7098 0
-28 -7090 7092 0
-7092 7099 0
-34 -7092 7094 0
-7094 7100 0
-40 -7094 7096 0
-7096 7101 0
-46 -7096 0
-22 7097 0
-28 -7097 7098 0
-34 -7098 7099 0
-40 -7099 7100 0
-46 -7100 7101 0
-52 -7101 0
10 7102 0
-7102 7103 0
16 -7102 7104 0
-7104 7105 0
22 -7104 7106 0
-7106 7107 0
28 -7106 7108 0
-7108 7109 0
34 -7108 7110 0
-7110 7111 0
40 -7110 0
16 7103 0
-7103 7112 0
22 -7103 7105 0
-7105 7113 0
28 -7105 7107 0
-7107 7114 0
34 -7107 7109 0
-7109 7115 0
40 -7109 7111 0
-7111 7116 0
46 -7111 0
22 7112 0
28 -7112 7113 0
34 -7113 7114 0
40 -7114 7115 0
46 -7115 7116 0
52 -7116 0
-11 7117 0
-7117 7118 0
-17 -7117 7119 0
-7119 7120 0
-23 -7119 7121 0
-7121 7122 0
-29 -7121 7123 0
-7123 7124 0
-35 -7123 7125 0
-7125 7126 0
-41 -7125 0
-17 7118 0
-7118 7127 0
-23 -7118 7120 0
-7120 7128 0
-29 -7120 7122 0
-7122 7129 0
-35 -7122 7124 0
-7124 7130 0
-41 -7124 7126 0
-7126 7131 0
-47 -7126 0
-23 7127 0
-29 -7127 7128 0
-35 -7128 7129 0
-41 -7129 7130 0
-47 -7130 7131 0
-53 -7131 0
11 7132 0
-7132 7133 0
17 -7132 7134 0
-7134 7135 0
23 -7134 7136 0
-7136 7137 0
29 -7136 7138 0
-7138 7139 0
35 -7138 7140 0
-7140 7141 0
41 -7140 0
17 7133 0
-7133 7142 0
23 -7133 7135 0
-7135 7143 0
29 -7135 7137 0
-7137 7144 0
35 -7137 7139 0
-7139 7145 0
41 -7139 7141 0
-7141 7146 0
47 -7141 0
23 7142 0
29 -7142 7143 0
35 -7143 7144 0
41 -7144 7145 0
47 -7145 7146 0
53 -7146 0
-12 7147 0
-7147 7148 0
-18 -7147 7149 0
-7149 7150 0
-24 -7149 7151 0
-7151 7152 0
-30 -7151 7153 0
-7153 7154 0
-36 -7153 7155 0
-7155 7156 0
-42 -7155 0
-18 7148 0
-7148 7157 0
-24 -7148 7150 0
-7150 7158 0
-30 -7150 7152 0
-7152 7159 0
-36 -7152 7154 0
-7154 7160 0
-42 -7154 7156 0
-7156 7161 0
-48 -7156 0
-24 7157 0
-30 -7157 7158 0
-36 -7158 7159 0
-42 -7159 7160 0
-48 -7160 7161 0
-54 -7161 0
12 7162 0
-7162 7163 0
18 -7162 7164 0
-7164 7165 0
24 -7164 7166 0
-7166 7167 0
30 -7166 7168 0
-7168 7169 0
36 -7168 7170 0
-7170 7171 0
42 -7170 0
18 7163 0
-7163 7172 0
24 -7163 7165 0
-7165 7173 0
30 -7165 7167 0
-7167 7174 0
36 -7167 7169 0
-7169 7175 0
42 -7169 7171 0
-7171 7176 0
48 -7171 0
24 7172 0
30 -7172 7173 0
36 -7173 7174 0
42 -7174 7175 0
48 -7175 7176 0
54 -7176 0
-13 7177 0
-7177 7178 0
-19 -7177 7179 0
-7179 7180 0
-25 -7179 7181 0
-7181 7182 0
-31 -7181 7183 0
-7183 7184 0
-37 -7183 7185 0
-7185 7186 0
-43 -7185 0
-19 7178 0
-7178 7187 0
-25 -7178 7180 0
-7180 7188 0
-31 -7180 7182 0
-7182 7189 0
-37 -7182 7184 0
-7184 7190 0
-43 -7184 7186 0
-7186 7191 0
-49 -7186 0
-25 7187 0
-31 -7187 7188 0
-37 -7188 7189 0
-43 -7189 7190 0
-49 -7190 7191 0
-55 -7191 0
13 7192 0
-7192 7193 0
19 -7192 7194 0
-7194 7195 0
25 -7194 7196 0
-7196 7197 0
31 -7196 7198 0
-7198 7199 0
37 -7198 7200 0
-7200 7201 0
43 -7200 0
19 7193 0
-7193 7202 0
25 -7193 7195 0
-7195 7203 0
31 -7195 7197 0
-7197 7204 0
37 -7197 7199 0
-7199 7205 0
43 -7199 7201 0
-7201 7206 0
49 -7201 0
25 7202 0
31 -7202 7203 0
37 -7203 7204 0
43 -7204 7205 0
49 -7205 7206 0
55 -7206 0
-14 7207 0
-7207 7208 0
-20 -7207 7209 0
-7209 7210 0
-26 -7209 7211 0
-7211 7212 0
-32 -7211 7213 0
-7213 7214 0
-38 -7213 7215 0
-7215 7216 0
-44 -7215 0
-20 7208 0
-7208 7217 0
-26 -7208 7210 0
-7210 7218 0
-32 -7210 7212 0
-7212 7219 0
-38 -7212 7214 0
-7214 7220 0
-44 -7214 7216 0
-7216 7221 0
-50 -7216 0
-26 7217 0
-32 -7217 7218 0
-38 -7218 7219 0
-44 -7219 7220 0
-50 -7220 7221 0
-56 -7221 0
14 7222 0
-7222 7223 0
20 -7222 7224 0
-7224 7225 0
26 -7224 7226 0
-7226 7227 0
32 -7226 7228 0
-7228 7229 0
38 -7228 7230 0
-7230 7231 0
44 -7230 0
20 7223 0
-7223 7232 0
26 -7223 7225 0
-7225 7233 0
32 -7225 7227 0
-7227 7234 0
38 -7227 7229 0
-7229 7235 0
44 -7229 7231 0
-7231 7236 0
50 -7231 0
26 7232 0
32 -7232 7233 0
38 -7233 7234 0
44 -7234 7235 0
50 -7235 7236 0
56 -7236 0
-15 7237 0
-7237 7238 0
-21 -7237 7239 0
-7239 7240 0
-27 -7239 7241 0
-7241 7242 0
-33 -7241 7243 0
-7243 7244 0
-39 -7243 7245 0
-7245 7246 0
-45 -7245 0
-21 7238 0
-7238 7247 0
-27 -7238 7240 0
-7240 7248 0
-33 -7240 7242 0
-7242 7249 0
-39 -7242 7244 0
-7244 7250 0
-45 -7244 7246 0
-7246 7251 0
-51 -7246 0
-27 7247 0
-33 -7247 7248 0
-39 -7248 7249 0
-45 -7249 7250 0
-51 -7250 7251 0
-57 -7251 0
15 7252 0
-7252 7253 0
21 -7252 7254 0
-7254 7255 0
27 -7254 7256 0
-7256 7257 0
33 -7256 7258 0
-7258 7259 0
39 -7258 7260 0
-7260 7261 0
45 -7260 0
21 7253 0
-7253 7262 0
27 -7253 7255 0
-7255 7263 0
33 -7255 7257 0
-7257 7264 0
39 -7257 7259 0
-7259 7265 0
45 -7259 7261 0
-7261 7266 0
51 -7261 0
27 7262 0
33 -7262 7263 0
39 -7263 7264 0
45 -7264 7265 0
51 -7265 7266 0
57 -7266 0
-16 7267 0
-7267 7268 0
-22 -7267 7269 0
-7269 7270 0
-28 -7269 7271 0
-7271 7272 0
-34 -7271 7273 0
-7273 7274 0
-40 -7273 7275 0
-7275 7276 0
-46 -7275 0
-22 7268 0
-7268 7277 0
-28 -7268 7270 0
-7270 7278 0
-34 -7270 7272 0
-7272 7279 0
-40 -7272 7274 0
-7274 7280 0
-46 -7274 7276 0
-7276 7281 0
-52 -7276 0
-28 7277 0
-34 -7277 7278 0
-40 -7278 7279 0
-46 -7279 7280 0
-52 -7280 7281 0
-58 -7281 0
16 7282 0
-7282 7283 0
22 -7282 7284 0
-7284 7285 0
28 -7284 7286 0
-7286 7287 0
34 -7286 7288 0
-7288 7289 0
40 -7288 7290 0
-7290 7291 0
46 -7290 0
22 7283 0
-7283 7292 0
28 -7283 7285 0
-7285 7293 0
34 -7285 7287 0
-7287 7294 0
40 -7287 7289 0
-7289 7295 0
46 -7289 7291 0
-7291 7296 0
52 -7291 0
28 7292 0
34 -7292 7293 0
40 -7293 7294 0
46 -7294 7295 0
52 -7295 7296 0
58 -7296 0
-17 7297 0
-7297 7298 0
-23 -7297 7299 0
-7299 7300 0
-29 -7299 7301 0
-7301 7302 0
-35 -7301 7303 0
-7303 7304 0
-41 -7303 7305 0
-7305 7306 0
-47 -7305 0
-23 7298 0
-7298 7307 0
-29 -7298 7300 0
-7300 7308 0
-35 -7300 7302 0
-7302 7309 0
-41 -7302 7304 0
-7304 7310 0
-47 -7304 7306 0
-7306 7311 0
-53 -7306 0
-29 7307 0
-35 -7307 7308 0
-41 -7308 7309 0
-47 -7309 7310 0
-53 -7310 7311 0
-59 -7311 0
17 7312 0
-7312 7313 0
23 -7312 7314 0
-7314 7315 0
29 -7314 7316 0
-7316 7317 0
35 -7316 7318 0
-7318 7319 0
41 -7318 7320 0
-7320 7321 0
47 -7320 0
23 7313 0
-7313 7322 0
29 -7313 7315 0
-7315 7323 0
35 -7315 7317 0
-7317 7324 0
41 -7317 7319 0
-7319 7325 0
47 -7319 7321 0
-7321 7326 0
53 -7321 0
29 7322 0
35 -7322 7323 0
41 -7323 7324 0
47 -7324 7325 0
53 -7325 7326 0
59 -7326 0
-18 7327 0
-7327 7328 0
-24 -7327 7329 0
-7329 7330 0
-30 -7329 7331 0
-7331 7332 0
-36 -7331 7333 0
-7333 7334 0
-42 -7333 7335 0
-7335 7336 0
-48 -7335 0
-24 7328 0
-7328 7337 0
-30 -7328 7330 0
-7330 7338 0
-36 -7330 7332 0
-7332 7339 0
-42 -7332 7334 0
-7334 7340 0
-48 -7334 7336 0
-7336 7341 0
-54 -7336 0
-30 7337 0
-36 -7337 7338 0
-42 -7338 7339 0
-48 -7339 7340 0
-54 -7340 7341 0
-60 -7341 0
18 7342 0
-7342 7343 0
24 -7342 7344 0
-7344 7345 0
30 -7344 7346 0
-7346 7347 0
36 -7346 7348 0
-7348 7349 0
42 -7348 7350 0
-7350 7351 0
48 -7350 0
24 7343 0
-7343 7352 0
30 -7343 7345 0
-7345 7353 0
36 -7345 7347 0
-7347 7354 0
42 -7347 7349 0
-7349 7355 0
48 -7349 7351 0
-7351 7356 0
54 -7351 0
30 7352 0
36 -7352 7353 0
42 -7353 7354 0
48 -7354 7355 0
54 -7355 7356 0
60 -7356 0
-19 7357 0
-7357 7358 0
-25 -7357 7359 0
-7359 7360 0
-31 -7359 7361 0
-7361 7362 0
-37 -7361 7363 0
-7363 7364 0
-43 -7363 7365 0
-7365 7366 0
-49 -7365 0
-25 7358 0
-7358 7367 0
-31 -7358 7360 0
-7360 7368 0
-37 -7360 7362 0
-7362 7369 0
-43 -7362 7364 0
-7364 7370 0
-49 -7364 7366 0
-7366 7371 0
-55 -7366 0
-31 7367 0
-37 -7367 7368 0
-43 -7368 7369 0
-49 -7369 7370 0
-55 -7370 7371 0
-61 -7371 0
19 7372 0
-7372 7373 0
25 -7372 7374 0
-7374 7375 0
31 -7374 7376 0
-7376 7377 0
37 -7376 7378 0
-7378 7379 0
43 -7378 7380 0
-7380 7381 0
49 -7380 0
25 7373 0
-7373 7382 0
31 -7373 7375 0
-7375 7383 0
37 -7375 7377 0
-7377 7384 0
43 -7377 7379 0
-7379 7385 0
49 -7379 7381 0
-7381 7386 0
55 -7381 0
31 7382 0
37 -7382 7383 0
43 -7383 7384 0
49 -7384 7385 0
55 -7385 7386 0
61 -7386 0
-20 7387 0
-7387 7388 0
-26 -7387 7389 0
-7389 7390 0
-32 -7389 7391 0
-7391 7392 0
-38 -7391 7393 0
-7393 7394 0
-44 -7393 7395 0
-7395 7396 0
-50 -7395 0
-26 7388 0
-7388 7397 0
-32 -7388 7390 0
-7390 7398 0
-38 -7390 7392 0
-7392 7399 0
-44 -7392 7394 0
-7394 7400 0
-50 -7394 7396 0
-7396 7401 0
-56 -7396 0
-32 7397 0
-38 -7397 7398 0
-44 -7398 7399 0
-50 -7399 7400 0
-56 -7400 7401 0
-62 -7401 0
20 7402 0
-7402 7403 0
26 -7402 7404 0
-7404 7405 0
32 -7404 7406 0
-7406 7407 0
38 -7406 7408 0
-7408 7409 0
44 -7408 7410 0
-7410 7411 0
50 -7410 0
26 7403 0
-7403 7412 0
32 -7403 7405 0
-7405 7413 0
38 -7405 7407 0
-7407 7414 0
44 -7407 7409 0
-7409 7415 0
50 -7409 7411 0
-7411 7416 0
56 -7411 0
32 7412 0
38 -7412 7413 0
44 -7413 7414 0
50 -7414 7415 0
56 -7415 7416 0
62 -7416 0
-21 7417 0
-7417 7418 0
-27 -7417 7419 0
-7419 7420 0
-33 -7419 7421 0
-7421 7422 0
-39 -7421 7423 0
-7423 7424 0
-45 -7423 7425 0
-7425 7426 0
-51 -7425 0
-27 7418 0
-7418 7427 0
-33 -7418 7420 0
-7420 7428 0
-39 -7420 7422 0
-7422 7429 0
-45 -7422 7424 0
-7424 7430 0
-51 -7424 7426 0
-7426 7431 0
-57 -7426 0
-33 7427 0
-39 -7427 7428 0
-45 -7428 7429 0
-51 -7429 7430 0
-57 -7430 7431 0
-63 -7431 0
21 7432 0
-7432 7433 0
27 -7432 7434 0
-7434 7435 0
33 -7434 7436 0
-7436 7437 0
39 -7436 7438 0
-7438 7439 0
45 -7438 7440 0
-7440 7441 0
51 -7440 0
27 7433 0
-7433 7442 0
33 -7433 7435 0
-7435 7443 0
39 -7435 7437 0
-7437 7444 0
45 -7437 7439 0
-7439 7445 0
51 -7439 7441 0
-7441 7446 0
57 -7441 0
33 7442 0
39 -7442 7443 0
45 -7443 7444 0
51 -7444 7445 0
57 -7445 7446 0
63 -7446 0
-22 7447 0
-7447 7448 0
-28 -7447 7449 0
-7449 7450 0
-34 -7449 7451 0
-7451 7452 0
-40 -7451 7453 0
-7453 7454 0
-46 -7453 7455 0
-7455 7456 0
-52 -7455 0
-28 7448 0
-7448 7457 0
-34 -7448 7450 0
-7450 7458 0
-40 -7450 7452 0
-7452 7459 0
-46 -7452 7454 0
-7454 7460 0
-52 -7454 7456 0
-7456 7461 0
-58 -7456 0
-34 7457 0
-40 -7457 7458 0
-46 -7458 7459 0
-52 -7459 7460 0
-58 -7460 7461 0
-64 -7461 0
22 7462 0
-7462 7463 0
28 -7462 7464 0
-7464 7465 0
34 -7464 7466 0
-7466 7467 0
40 -7466 7468 0
-7468 7469 0
46 -7468 7470 0
-7470 7471 0
52 -7470 0
28 7463 0
-7463 7472 0
34 -7463 7465 0
-7465 7473 0
40 -7465 7467 0
-7467 7474 0
46 -7467 7469 0
-7469 7475 0
52 -7469 7471 0
-7471 7476 0
58 -7471 0
34 7472 0
40 -7472 7473 0
46 -7473 7474 0
52 -7474 7475 0
58 -7475 7476 0
64 -7476 0
-23 7477 0
-7477 7478 0
-29 -7477 7479 0
-7479 7480 0
-35 -7479 7481 0
-7481 7482 0
-41 -7481 7483 0
-7483 7484 0
-47 -7483 7485 0
-7485 7486 0
-53 -7485 0
-29 7478 0
-7478 7487 0
-35 -7478 7480 0
-7480 7488 0
-41 -7480 7482 0
-7482 7489 0
-47 -7482 7484 0
-7484 7490 0
-53 -7484 7486 0
-7486 7491 0
-59 -7486 0
-35 7487 0
-41 -7487 7488 0
-47 -7488 7489 0
-53 -7489 7490 0
-59 -7490 7491 0
-65 -7491 0
23 7492 0
-7492 7493 0
29 -7492 7494 0
-7494 7495 0
35 -7494 7496 0
-7496 7497 0
41 -7496 7498 0
-7498 7499 0
47 -7498 7500 0
-7500 7501 0
53 -7500 0
29 7493 0
-7493 7502 0
35 -7493 7495 0
-7495 7503 0
41 -7495 7497 0
-7497 7504 0
47 -7497 7499 0
-7499 7505 0
53 -7499 7501 0
-7501 7506 0
59 -7501 0
35 7502 0
41 -7502 7503 0
47 -7503 7504 0
53 -7504 7505 0
59 -7505 7506 0
65 -7506 0
-24 7507 0
-7507 7508 0
-30 -7507 7509 0
-7509 7510 0
-36 -7509 7511 0
-7511 7512 0
-42 -7511 7513 0
-7513 7514 0
-48 -7513 7515 0
-7515 7516 0
-54 -7515 0
-30 7508 0
-7508 7517 0
-36 -7508 7510 0
-7510 7518 0
-42 -7510 7512 0
-7512 7519 0
-48 -7512 7514 0
-7514 7520 0
-54 -7514 7516 0
-7516 7521 0
-60 -7516 0
-36 7517 0
-42 -7517 7518 0
-48 -7518 7519 0
-54 -7519 7520 0
-60 -7520 7521 0
-66 -7521 0
24 7522 0
-7522 7523 0
30 -7522 7524 0
-7524 7525 0
36 -7524 7526 0
-7526 7527 0
42 -7526 7528 0
-7528 7529 0
48 -7528 7530 0
-7530 7531 0
54 -7530 0
30 7523 0
-7523 7532 0
36 -7523 7525 0
-7525 7533 0
42 -7525 7527 0
-7527 7534 0
48 -7527 7529 0
-7529 7535 0
54 -7529 7531 0
-7531 7536 0
60 -7531 0
36 7532 0
42 -7532 7533 0
48 -7533 7534 0
54 -7534 7535 0
60 -7535 7536 0
66 -7536 0
-1 7537 0
-7537 7538 0
-8 -7537 7539 0
-7539 7540 0
-15 -7539 7541 0
-7541 7542 0
-22 -7541 7543 0
-7543 7544 0
-29 -7543 7545 0
-7545 7546 0
-36 -7545 0
-8 7538 0
-7538 7547 0
-15 -7538 7540 0
-7540 7548 0
-22 -7540 7542 0
-7542 7549 0
-29 -7542 7544 0
-7544 7550 0
-36 -7544 7546 0
-7546 7551 0
-43 -7546 0
-15 7547 0
-22 -7547 7548 0
-29 -7548 7549 0
-36 -7549 7550 0
-43 -7550 7551 0
-50 -7551 0
1 7552 0
-7552 7553 0
8 -7552 7554 0
-7554 7555 0
15 -7554 7556 0
-7556 7557 0
22 -7556 7558 0
-7558 7559 0
29 -7558 7560 0
-7560 7561 0
36 -7560 0
8 7553 0
-7553 7562 0
15 -7553 7555 0
-7555 7563 0
22 -7555 7557 0
-7557 7564 0
29 -7557 7559 0
-7559 7565 0
36 -7559 7561 0
-7561 7566 0
43 -7561 0
15 7562 0
22 -7562 7563 0
29 -7563 7564 0
36 -7564 7565 0
43 -7565 7566 0
50 -7566 0
-2 7567 0
-7567 7568 0
-9 -7567 7569 0
-7569 7570 0
-16 -7569 7571 0
-7571 7572 0
-23 -7571 7573 0
-7573 7574 0
-30 -7573 7575 0
-7575 7576 0
-37 -7575 0
-9 7568 0
-7568 7577 0
-16 -7568 7570 0
-7570 7578 0
-23 -7570 7572 0
-7572 7579 0
-30 -7572 7574 0
-7574 7580 0
-37 -7574 7576 0
-7576 7581 0
-44 -7576 0
-16 7577 0
-23 -7577 7578 0
-30 -7578 7579 0
-37 -7579 7580 0
-44 -7580 7581 0
-51 -7581 0
2 7582 0
-7582 7583 0
9 -7582 7584 0
-7584 7585 0
16 -7584 7586 0
-7586 7587 0
23 -7586 7588 0
-7588 7589 0
30 -7588 7590 0
-7590 7591 0
37 -7590 0
9 7583 0
-7583 7592 0
16 -7583 7585 0
-7585 7593 0
23 -7585 7587 0
-7587 7594 0
30 -7587 7589 0
-7589 7595 0
37 -7589 7591 0
-7591 7596 0
44 -7591 0
16 7592 0
23 -7592 7593 0
30 -7593 7594 0
37 -7594 7595 0
44 -7595 7596 0
51 -7596 0
-3 7597 0
-7597 7598 0
-10 -7597 7599 0
-7599 7600 0
-17 -7599 7601 0
-7601 7602 0
-24 -7601 7603 0
-7603 7604 0
-31 -7603 7605 0
-7605 7606 0
-38 -7605 0
-10 7598 0
-7598 7607 0
-17 -7598 7600 0
-7600 7608 0
-24 -7600 7602 0
-7602 7609 0
-31 -7602 7604 0
-7604 7610 0
-38 -7604 7606 0
-7606 7611 0
-45 -7606 0
-17 7607 0
-24 -7607 7608 0
-31 -7608 7609 0
-38 -7609 7610 0
-45 -7610 7611 0
-52 -7611 0
3 7612 0
-7612 7613 0
10 -7612 7614 0
-7614 7615 0
17 -7614 7616 0
-7616 7617 0
24 -7616 7618 0
-7618 7619 0
31 -7618 7620 0
-7620 7621 0
38 -7620 0
10 7613 0
-7613 7622 0
17 -7613 7615 0
-7615 7623 0
24 -7615 7617 0
-7617 7624 0
31 -7617 7619 0
-7619 7625 0
38 -7619 7621 0
-7621 7626 0
45 -7621 0
17 7622 0
24 -7622 7623 0
31 -7623 7624 0
38 -7624 7625 0
45 -7625 7626 0
52 -7626 0
-4 7627 0
-7627 7628 0
-11 -7627 7629 0
-7629 7630 0
-18 -7629 7631 0
-7631 7632 0
-25 -7631 7633 0
-7633 7634 0
-32 -7633 7635 0
-7635 7636 0
-39 -7635 0
-11 7628 0
-7628 7637 0
-18 -7628 7630 0
-7630 7638 0
-25 -7630 7632 0
-7632 7639 0
-32 -7632 7634 0
-7634 7640 0
-39 -7634 7636 0
-7636 7641 0
-46 -7636 0
-18 7637 0
-25 -7637 7638 0
-32 -7638 7639 0
-39 -7639 7640 0
-46 -7640 7641 0
-53 -7641 0
4 7642 0
-7642 7643 0
11 -7642 7644 0
-7644 7645 0
18 -7644 7646 0
-7646 7647 0
25 -7646 7648 0
-7648 7649 0
32 -7648 7650 0
-7650 7651 0
39 -7650 0
11 7643 0
-7643 7652 0
18 -7643 7645 0
-7645 7653 0
25 -7645 7647 0
-7647 7654 0
32 -7647 7649 0
-7649 7655 0
39 -7649 7651 0
-7651 7656 0
46 -7651 0
18 7652 0
25 -7652 7653 0
32 -7653 7654 0
39 -7654 7655 0
46 -7655 7656 0
53 -7656 0
-5 7657 0
-7657 7658 0
-12 -7657 7659 0
-7659 7660 0
-19 -7659 7661 0
-7661 7662 0
-26 -7661 7663 0
-7663 7664 0
-33 -7663 7665 0
-7665 7666 0
-40 -7665 0
-12 7658 0
-7658 7667 0
-19 -7658 7660 0
-7660 7668 0
-26 -7660 7662 0
-7662 7669 0
-33 -7662 7664 0
-7664 7670 0
-40 -7664 7666 0
-7666 7671 0
-47 -7666 0
-19 7667 0
-26 -7667 7668 0
-33 -7668 7669 0
-40 -7669 7670 0
-47 -7670 7671 0
-54 -7671 0
5 7672 0
-7672 7673 0
12 -7672 7674 0
-7674 7675 0
19 -7674 7676 0
-7676 7677 0
26 -7676 7678 0
-7678 7679 0
33 -7678 7680 0
-7680 7681 0
40 -7680 0
12 7673 0
-7673 7682 0
19 -7673 7675 0
-7675 7683 0
26 -7675 7677 0
-7677 7684 0
33 -7677 7679 0
-7679 7685 0
40 -7679 7681 0
-7681 7686 0
47 -7681 0
19 7682 0
26 -7682 7683 0
33 -7683 7684 0
40 -7684 7685 0
47 -7685 7686 0
54 -7686 0
-6 7687 0
-7687 7688 0
-13 -7687 7689 0
-7689 7690 0
-20 -7689 7691 0
-7691 7692 0
-27 -7691 7693 0
-7693 7694 0
-34 -7693 7695 0
-7695 7696 0
-41 -7695 0
-13 7688 0
-7688 7697 0
-20 -7688 7690 0
-7690 7698 0
-27 -7690 7692 0
-7692 7699 0
-34 -7692 7694 0
-7694 7700 0
-41 -7694 7696 0
-7696 7701 0
-48 -7696 0
-20 7697 0
-27 -7697 7698 0
-34 -7698 7699 0
-41 -7699 7700 0
-48 -7700 7701 0
-55 -7701 0
6 7702 0
-7702 7703 0
13 -7702 7704 0
-7704 7705 0
20 -7704 7706 0
-7706 7707 0
27 -7706 7708 0
-7708 7709 0
34 -7708 7710 0
-7710 7711 0
41 -7710 0
13 7703 0
-7703 7712 0
20 -7703 7705 0
-7705 7713 0
27 -7705 7707 0
-7707 7714 0
34 -7707 7709 0
-7709 7715 0
41 -7709 7711 0
-7711 7716 0
48 -7711 0
20 7712 0
27 -7712 7713 0
34 -7713 7714 0
41 -7714 7715 0
48 -7715 7716 0
55 -7716 0
-7 7717 0
-7717 7718 0
-14 -7717 7719 0
-7719 7720 0
-21 -7719 7721 0
-7721 7722 0
-28 -7721 7723 0
-7723 7724 0
-35 -7723 7725 0
-7725 7726 0
-42 -7725 0
-14 7718 0
-7718 7727 0
-21 -7718 7720 0
-7720 7728 0
-28 -7720 7722 0
-7722 7729 0
-35 -7722 7724 0
-7724 7730 0
-42 -7724 7726 0
-7726 7731 0
-49 -7726 0
-21 7727 0
-28 -7727 7728 0
-35 -7728 7729 0
-42 -7729 7730 0
-49 -7730 7731 0
-56 -7731 0
7 7732 0
-7732 7733 0
14 -7732 7734 0
-7734 7735 0
21 -7734 7736 0
-7736 7737 0
28 -7736 7738 0
-7738 7739 0
35 -7738 7740 0
-7740 7741 0
42 -7740 0
14 7733 0
-7733 7742 0
21 -7733 7735 0
-7735 7743 0
28 -7735 7737 0
-7737 7744 0
35 -7737 7739 0
-7739 7745 0
42 -7739 7741 0
-7741 7746 0
49 -7741 0
21 7742 0
28 -7742 7743 0
35 -7743 7744 0
42 -7744 7745 0
49 -7745 7746 0
56 -7746 0
-8 7747 0
-7747 7748 0
-15 -7747 7749 0
-7749 7750 0
-22 -7749 7751 0
-7751 7752 0
-29 -7751 7753 0
-7753 7754 0
-36 -7753 7755 0
-7755 7756 0
-43 -7755 0
-15 7748 0
-7748 7757 0
-22 -7748 7750 0
-7750 7758 0
-29 -7750 7752 0
-7752 7759 0
-36 -7752 7754 0
-7754 7760 0
-43 -7754 7756 0
-7756 7761 0
-50 -7756 0
-22 7757 0
-29 -7757 7758 0
-36 -7758 7759 0
-43 -7759 7760 0
-50 -7760 7761 0
-57 -7761 0
8 7762 0
-7762 7763 0
15 -7762 7764 0
-7764 7765 0
22 -7764 7766 0
-7766 7767 0
29 -7766 7768 0
-7768 7769 0
36 -7768 7770 0
-7770 7771 0
43 -7770 0
15 7763 0
-7763 7772 0
22 -7763 7765 0
-7765 7773 0
29 -7765 7767 0
-7767 7774 0
36 -7767 7769 0
-7769 7775 0
43 -7769 7771 0
-7771 7776 0
50 -7771 0
22 7772 0
29 -7772 7773 0
36 -7773 7774 0
43 -7774 7775 0
50 -7775 7776 0
57 -7776 0
-9 7777 0
-7777 7778 0
-16 -7777 7779 0
-7779 7780 0
-23 -7779 7781 0
-7781 7782 0
-30 -7781 7783 0
-7783 7784 0
-37 -7783 7785 0
-7785 7786 0
-44 -7785 0
-16 7778 0
-7778 7787 0
-23 -7778 7780 0
-7780 7788 0
-30 -7780 7782 0
-7782 7789 0
-37 -7782 7784 0
-7784 7790 0
-44 -7784 7786 0
-7786 7791 0
-51 -7786 0
-23 7787 0
-30 -7787 7788 0
-37 -7788 7789 0
-44 -7789 7790 0
-51 -7790 7791 0
-58 -7791 0
9 7792 0
-7792 7793 0
16 -7792 7794 0
-7794 7795 0
23 -7794 7796 0
-7796 7797 0
30 -7796 7798 0
-7798 7799 0
37 -7798 7800 0
-7800 7801 0
44 -7800 0
16 7793 0
-7793 7802 0
23 -7793 7795 0
-7795 7803 0
30 -7795 7797 0
-7797 7804 0
37 -7797 7799 0
-7799 7805 0
44 -7799 7801 0
-7801 7806 0
51 -7801 0
23 7802 0
30 -7802 7803 0
37 -7803 7804 0
44 -7804 7805 0
51 -7805 7806 0
58 -7806 0
-10 7807 0
-7807 7808 0
-17 -7807 7809 0
-7809 7810 0
-24 -7809 7811 0
-7811 7812 0
-31 -7811 7813 0
-7813 7814 0
-38 -7813 7815 0
-7815 7816 0
-45 -7815 0
-17 7808 0
-7808 7817 0
-24 -7808 7810 0
-7810 7818 0
-31 -7810 7812 0
-7812 7819 0
-38 -7812 7814 0
-7814 7820 0
-45 -7814 7816 0
-7816 7821 0
-52 -7816 0
-24 7817 0
-31 -7817 7818 0
-38 -7818 7819 0
-45 -7819 7820 0
-52 -7820 7821 0
-59 -7821 0
10 7822 0
-7822 7823 0
17 -7822 7824 0
-7824 7825 0
24 -7824 7826 0
-7826 7827 0
31 -7826 7828 0
-7828 7829 0
38 -7828 7830 0
-7830 7831 0
45 -7830 0
17 7823 0
-7823 7832 0
24 -7823 7825 0
-7825 7833 0
31 -7825 7827 0
-7827 7834 0
38 -7827 7829 0
-7829 7835 0
45 -7829 7831 0
-7831 7836 0
52 -7831 0
24 7832 0
31 -7832 7833 0
38 -7833 7834 0
45 -7834 7835 0
52 -7835 7836 0
59 -7836 0
-11 7837 0
-7837 7838 0
-18 -7837 7839 0
-7839 7840 0
-25 -7839 7841 0
-7841 7842 0
-32 -7841 7843 0
-7843 7844 0
-39 -7843 7845 0
-7845 7846 0
-46 -7845 0
-18 7838 0
-7838 7847 0
-25 -7838 7840 0
-7840 7848 0
-32 -7840 7842 0
-7842 7849 0
-39 -7842 7844 0
-7844 7850 0
-46 -7844 7846 0
-7846 7851 0
-53 -7846 0
-25 7847 0
-32 -7847 7848 0
-39 -7848 7849 0
-46 -7849 7850 0
-53 -7850 7851 0
-60 -7851 0
11 7852 0
-7852 7853 0
18 -7852 7854 0
-7854 7855 0
25 -7854 7856 0
-7856 7857 0
32 -7856 7858 0
-7858 7859 0
39 -7858 7860 0
-7860 7861 0
46 -7860 0
18 7853 0
-7853 7862 0
25 -7853 7855 0
-7855 7863 0
32 -7855 7857 0
-7857 7864 0
39 -7857 7859 0
-7859 7865 0
46 -7859 7861 0
-7861 7866 0
53 -7861 0
25 7862 0
32 -7862 7863 0
39 -7863 7864 0
46 -7864 7865 0
53 -7865 7866 0
60 -7866 0
-12 7867 0
-7867 7868 0
-19 -7867 7869 0
-7869 7870 0
-26 -7869 7871 0
-7871 7872 0
-33 -7871 7873 0
-7873 7874 0
-40 -7873 7875 0
-7875 7876 0
-47 -7875 0
-19 7868 0
-7868 7877 0
-26 -7868 7870 0
-7870 7878 0
-33 -7870 7872 0
-7872 7879 0
-40 -7872 7874 0
-7874 7880 0
-47 -7874 7876 0
-7876 7881 0
-54 -7876 0
-26 7877 0
-33 -7877 7878 0
-40 -7878 7879 0
-47 -7879 7880 0
-54 -7880 7881 0
-61 -7881 0
12 7882 0
-7882 7883 0
19 -7882 7884 0
-7884 7885 0
26 -7884 7886 0
-7886 7887 0
33 -7886 7888 0
-7888 7889 0
40 -7888 7890 0
-7890 7891 0
47 -7890 0
19 7883 0
-7883 7892 0
26 -7883 7885 0
-7885 7893 0
33 -7885 7887 0
-7887 7894 0
40 -7887 7889 0
-7889 7895 0
47 -7889 7891 0
-7891 7896 0
54 -7891 0
26 7892 0
33 -7892 7893 0
40 -7893 7894 0
47 -7894 7895 0
54 -7895 7896 0
61 -7896 0
-13 7897 0
-7897 7898 0
-20 -7897 7899 0
-7899 7900 0
-27 -7899 7901 0
-7901 7902 0
-34 -7901 7903 0
-7903 7904 0
-41 -7903 7905 0
-7905 7906 0
-48 -7905 0
-20 7898 0
-7898 7907 0
-27 -7898 7900 0
-7900 7908 0
-34 -7900 7902 0
-7902 7909 0
-41 -7902 7904 0
-7904 7910 0
-48 -7904 7906 0
-7906 7911 0
-55 -7906 0
-27 7907 0
-34 -7907 7908 0
-41 -7908 7909 0
-48 -7909 7910 0
-55 -7910 7911 0
-62 -7911 0
13 7912 0
-7912 7913 0
20 -7912 7914 0
-7914 7915 0
27 -7914 7916 0
-7916 7917 0
34 -7916 7918 0
-7918 7919 0
41 -7918 7920 0
-7920 7921 0
48 -7920 0
20 7913 0
-7913 7922 0
27 -7913 7915 0
-7915 7923 0
34 -7915 7917 0
-7917 7924 0
41 -7917 7919 0
-7919 7925 0
48 -7919 7921 0
-7921 7926 0
55 -7921 0
27 7922 0
34 -7922 7923 0
41 -7923 7924 0
48 -7924 7925 0
55 -7925 7926 0
62 -7926 0
-14 7927 0
-7927 7928 0
-21 -7927 7929 0
-7929 7930 0
-28 -7929 7931 0
-7931 7932 0
-35 -7931 7933 0
-7933 7934 0
-42 -7933 7935 0
-7935 7936 0
-49 -7935 0
-21 7928 0
-7928 7937 0
-28 -7928 7930 0
-7930 7938 0
-35 -7930 7932 0
-7932 7939 0
-42 -7932 7934 0
-7934 7940 0
-49 -7934 7936 0
-7936 7941 0
-56 -7936 0
-28 7937 0
-35 -7937 7938 0
-42 -7938 7939 0
-49 -7939 7940 0
-56 -7940 7941 0
-63 -7941 0
14 7942 0
-7942 7943 0
21 -7942 7944 0
-7944 7945 0
28 -7944 7946 0
-7946 7947 0
35 -7946 7948 0
-7948 7949 0
42 -7948 7950 0
-7950 7951 0
49 -7950 0
21 7943 0
-7943 7952 0
28 -7943 7945 0
-7945 7953 0
35 -7945 7947 0
-7947 7954 0
42 -7947 7949 0
-7949 7955 0
49 -7949 7951 0
-7951 7956 0
56 -7951 0
28 7952 0
35 -7952 7953 0
42 -7953 7954 0
49 -7954 7955 0
56 -7955 7956 0
63 -7956 0
-15 7957 0
-7957 7958 0
-22 -7957 7959 0
-7959 7960 0
-29 -7959 7961 0
-7961 7962 0
-36 -7961 7963 0
-7963 7964 0
-43 -7963 7965 0
-7965 7966 0
-50 -7965 0
-22 7958 0
-7958 7967 0
-29 -7958 7960 0
-7960 7968 0
-36 -7960 7962 0
-7962 7969 0
-43 -7962 7964 0
-7964 7970 0
-50 -7964 7966 0
-7966 7971 0
-57 -7966 0
-29 7967 0
-36 -7967 7968 0
-43 -7968 7969 0
-50 -7969 7970 0
-57 -7970 7971 0
-64 -7971 0
15 7972 0
-7972 7973 0
22 -7972 7974 0
-7974 7975 0
29 -7974 7976 0
-7976 7977 0
36 -7976 7978 0
-7978 7979 0
43 -7978 7980 0
-7980 7981 0
50 -7980 0
22 7973 0
-7973 7982 0
29 -7973 7975 0
-7975 7983 0
36 -7975 7977 0
-7977 7984 0
43 -7977 7979 0
-7979 7985 0
50 -7979 7981 0
-7981 7986 0
57 -7981 0
29 7982 0
36 -7982 7983 0
43 -7983 7984 0
50 -7984 7985 0
57 -7985 7986 0
64 -7986 0
-16 7987 0
-7987 7988 0
-23 -7987 7989 0
-7989 7990 0
-30 -7989 7991 0
-7991 7992 0
-37 -7991 7993 0
-7993 7994 0
-44 -7993 7995 0
-7995 7996 0
-51 -7995 0
-23 7988 0
-7988 7997 0
-30 -7988 7990 0
-7990 7998 0
-37 -7990 7992 0
-7992 7999 0
-44 -7992 7994 0
-7994 8000 0
-51 -7994 7996 0
-7996 8001 0
-58 -7996 0
-30 7997 0
-37 -7997 7998 0
-44 -7998 7999 0
-51 -7999 8000 0
-58 -8000 8001 0
-65 -8001 0
16 8002 0
-8002 8003 0
23 -8002 8004 0
-8004 8005 0
30 -8004 8006 0
-8006 8007 0
37 -8006 8008 0
-8008 8009 0
44 -8008 8010 0
-8010 8011 0
51 -8010 0
23 8003 0
-8003 8012 0
30 -8003 8005 0
-8005 8013 0
37 -8005 8007 0
-8007 8014 0
44 -8007 8009 0
-8009 8015 0
51 -8009 8011 0
-8011 8016 0
58 -8011 0
30 8012 0
37 -8012 8013 0
44 -8013 8014 0
51 -8014 8015 0
58 -8015 8016 0
65 -8016 0
-17 8017 0
-8017 8018 0
-24 -8017 8019 0
-8019 8020 0
-31 -8019 8021 0
-8021 8022 0
-38 -8021 8023 0
-8023 8024 0
-45 -8023 8025 0
-8025 8026 0
-52 -8025 0
-24 8018 0
-8018 8027 0
-31 -8018 8020 0
-8020 8028 0
-38 -8020 8022 0
-8022 8029 0
-45 -8022 8024 0
-8024 8030 0
-52 -8024 8026 0
-8026 8031 0
-59 -8026 0
-31 8027 0
-38 -8027 8028 0
-45 -8028 8029 0
-52 -8029 8030 0
-59 -8030 8031 0
-66 -8031 0
17 8032 0
-8032 8033 0
24 -8032 8034 0
-8034 8035 0
31 -8034 8036 0
-8036 8037 0
38 -8036 8038 0
-8038 8039 0
45 -8038 8040 0
-8040 8041 0
52 -8040 0
24 8033 0
-8033 8042 0
31 -8033 8035 0
-8035 8043 0
38 -8035 8037 0
-8037 8044 0
45 -8037 8039 0
-8039 8045 0
52 -8039 8041 0
-8041 8046 0
59 -8041 0
31 8042 0
38 -8042 8043 0
45 -8043 8044 0
52 -8044 8045 0
59 -8045 8046 0
66 -8046 0
-1 8047 0
-8047 8048 0
-9 -8047 8049 0
-8049 8050 0
-17 -8049 8051 0
-8051 8052 0
-25 -8051 8053 0
-8053 8054 0
-33 -8053 8055 0
-8055 8056 0
-41 -8055 0
-9 8048 0
-8048 8057 0
-17 -8048 8050 0
-8050 8058 0
-25 -8050 8052 0
-8052 8059 0
-33 -8052 8054 0
-8054 8060 0
-41 -8054 8056 0
-8056 8061 0
-49 -8056 0
-17 8057 0
-25 -8057 8058 0
-33 -8058 8059 0
-41 -8059 8060 0
-49 -8060 8061 0
-57 -8061 0
1 8062 0
-8062 8063 0
9 -8062 8064 0
-8064 8065 0
17 -8064 8066 0
-8066 8067 0
25 -8066 8068 0
-8068 8069 0
33 -8068 8070 0
-8070 8071 0
41 -8070 0
9 8063 0
-8063 8072 0
17 -8063 8065 0
-8065 8073 0
25 -8065 8067 0
-8067 8074 0
33 -8067 8069 0
-8069 8075 0
41 -8069 8071 0
-8071 8076 0
49 -8071 0
17 8072 0
25 -8072 8073 0
33 -8073 8074 0
41 -8074 8075 0
49 -8075 8076 0
57 -8076 0
-2 8077 0
-8077 8078 0
-10 -8077 8079 0
-8079 8080 0
-18 -8079 8081 0
-8081 8082 0
-26 -8081 8083 0
-8083 8084 0
-34 -8083 8085 0
-8085 8086 0
-42 -8085 0
-10 8078 0
-8078 8087 0
-18 -8078 8080 0
-8080 8088 0
-26 -8080 8082 0
-8082 8089 0
-34 -8082 8084 0
-8084 8090 0
-42 -8084 8086 0
-8086 8091 0
-50 -8086 0
-18 8087 0
-26 -8087 8088 0
-34 -8088 8089 0
-42 -8089 8090 0
-50 -8090 8091 0
-58 -8091 0
2 8092 0
-8092 8093 0
10 -8092 8094 0
-8094 8095 0
18 -8094 8096 0
-8096 8097 0
26 -8096 8098 0
-8098 8099 0
34 -8098 8100 0
-8100 8101 0
42 -8100 0
10 8093 0
-8093 8102 0
18 -8093 8095 0
-8095 8103 0
26 -8095 8097 0
-8097 8104 0
34 -8097 8099 0
-8099 8105 0
42 -8099 8101 0
-8101 8106 0
50 -8101 0
18 8102 0
26 -8102 8103 0
34 -8103 8104 0
42 -8104 8105 0
50 -8105 8106 0
58 -8106 0
-3 8107 0
-8107 8108 0
-11 -8107 8109 0
-8109 8110 0
-19 -8109 8111 0
-8111 8112 0
-27 -8111 8113 0
-8113 8114 0
-35 -8113 8115 0
-8115 8116 0
-43 -8115 0
-11 8108 0
-8108 8117 0
-19 -8108 8110 0
-8110 8118 0
-27 -8110 8112 0
-8112 8119 0
-35 -8112 8114 0
-8114 8120 0
-43 -8114 8116 0
-8116 8121 0
-51 -8116 0
-19 8117 0
-27 -8117 8118 0
-35 -8118 8119 0
-43 -8119 8120 0
-51 -8120 8121 0
-59 -8121 0
3 8122 0
-8122 8123 0
11 -8122 8124 0
-8124 8125 0
19 -8124 8126 0
-8126 8127 0
27 -8126 8128 0
-8128 8129 0
35 -8128 8130 0
-8130 8131 0
43 -8130 0
11 8123 0
-8123 8132 0
19 -8123 8125 0
-8125 8133 0
27 -8125 8127 0
-8127 8134 0
35 -8127 8129 0
-8129 8135 0
43 -8129 8131 0
-8131 8136 0
51 -8131 0
19 8132 0
27 -8132 8133 0
35 -8133 8134 0
43 -8134 8135 0
51 -8135 8136 0
59 -8136 0
-4 8137 0
-8137 8138 0
-12 -8137 8139 0
-8139 8140 0
-20 -8139 8141 0
-8141 8142 0
-28 -8141 8143 0
-8143 8144 0
-36 -8143 8145 0
-8145 8146 0
-44 -8145 0
-12 8138 0
-8138 8147 0
-20 -8138 8140 0
-8140 8148 0
-28 -8140 8142 0
-8142 8149 0
-36 -8142 8144 0
-8144 8150 0
-44 -8144 8146 0
-8146 8151 0
-52 -8146 0
-20 8147 0
-28 -8147 8148 0
-36 -8148 8149 0
-44 -8149 8150 0
-52 -8150 8151 0
-60 -8151 0
4 8152 0
-8152 8153 0
12 -8152 8154 0
-8154 8155 0
20 -8154 8156 0
-8156 8157 0
28 -8156 8158 0
-8158 8159 0
36 -8158 8160 0
-8160 8161 0
44 -8160 0
12 8153 0
-8153 8162 0
20 -8153 8155 0
-8155 8163 0
28 -8155 8157 0
-8157 8164 0
36 -8157 8159 0
-8159 8165 0
44 -8159 8161 0
-8161 8166 0
52 -8161 0
20 8162 0
28 -8162 8163 0
36 -8163 8164 0
44 -8164 8165 0
52 -8165 8166 0
60 -8166 0
-5 8167 0
-8167 8168 0
-13 -8167 8169 0
-8169 8170 0
-21 -8169 8171 0
-8171 8172 0
-29 -8171 8173 0
-8173 8174 0
-37 -8173 8175 0
-8175 8176 0
-45 -8175 0
-13 8168 0
-8168 8177 0
-21 -8168 8170 0
-8170 8178 0
-29 -8170 8172 0
-8172 8179 0
-37 -8172 8174 0
-8174 8180 0
-45 -8174 8176 0
-8176 8181 0
-53 -8176 0
-21 8177 0
-29 -8177 8178 0
-37 -8178 8179 0
-45 -8179 8180 0
-53 -8180 8181 0
-61 -8181 0
5 8182 0
-8182 8183 0
13 -8182 8184 0
-8184 8185 0
21 -8184 8186 0
-8186 8187 0
29 -8186 8188 0
-8188 8189 0
37 -8188 8190 0
-8190 8191 0
45 -8190 0
13 8183 0
-8183 8192 0
21 -8183 8185 0
-8185 8193 0
29 -8185 8187 0
-8187 8194 0
37 -8187 8189 0
-8189 8195 0
45 -8189 8191 0
-8191 8196 0
53 -8191 0
21 8192 0
29 -8192 8193 0
37 -8193 8194 0
45 -8194 8195 0
53 -8195 8196 0
61 -8196 0
-6 8197 0
-8197 8198 0
-14 -8197 8199 0
-8199 8200 0
-22 -8199 8201 0
-8201 8202 0
-30 -8201 8203 0
-8203 8204 0
-38 -8203 8205 0
-8205 8206 0
-46 -8205 0
-14 8198 0
-8198 8207 0
-22 -8198 8200 0
-8200 8208 0
-30 -8200 8202 0
-8202 8209 0
-38 -8202 8204 0
-8204 8210 0
-46 -8204 8206 0
-8206 8211 0
-54 -8206 0
-22 8207 0
-30 -8207 8208 0
-38 -8208 8209 0
-46 -8209 8210 0
-54 -8210 8211 0
-62 -8211 0
6 8212 0
-8212 8213 0
14 -8212 8214 0
-8214 8215 0
22 -8214 8216 0
-8216 8217 0
30 -8216 8218 0
-8218 8219 0
38 -8218 8220 0
-8220 8221 0
46 -8220 0
14 8213 0
-8213 8222 0
22 -8213 8215 0
-8215 8223 0
30 -8215 8217 0
-8217 8224 0
38 -8217 8219 0
-8219 8225 0
46 -8219 8221 0
-8221 8226 0
54 -8221 0
22 8222 0
30 -8222 8223 0
38 -8223 8224 0
46 -8224 8225 0
54 -8225 8226 0
62 -8226 0
-7 8227 0
-8227 8228 0
-15 -8227 8229 0
-8229 8230 0
-23 -8229 8231 0
-8231 8232 0
-31 -8231 8233 0
-8233 8234 0
-39 -8233 8235 0
-8235 8236 0
-47 -8235 0
-15 8228 0
-8228 8237 0
-23 -8228 8230 0
-8230 8238 0
-31 -8230 8232 0
-8232 8239 0
-39 -8232 8234 0
-8234 8240 0
-47 -8234 8236 0
-8236 8241 0
-55 -8236 0
-23 8237 0
-31 -8237 8238 0
-39 -8238 8239 0
-47 -8239 8240 0
-55 -8240 8241 0
-63 -8241 0
7 8242 0
-8242 8243 0
15 -8242 8244 0
-8244 8245 0
23 -8244 8246 0
-8246 8247 0
31 -8246 8248 0
-8248 8249 0
39 -8248 8250 0
-8250 8251 0
47 -8250 0
15 8243 0
-8243 8252 0
23 -8243 8245 0
-8245 8253 0
31 -8245 8247 0
-8247 8254 0
39 -8247 8249 0
-8249 8255 0
47 -8249 8251 0
-8251 8256 0
55 -8251 0
23 8252 0
31 -8252 8253 0
39 -8253 8254 0
47 -8254 8255 0
55 -8255 8256 0
63 -8256 0
-8 8257 0
-8257 8258 0
-16 -8257 8259 0
-8259 8260 0
-24 -8259 8261 0
-8261 8262 0
-32 -8261 8263 0
-8263 8264 0
-40 -8263 8265 0
-8265 8266 0
-48 -8265 0
-16 8258 0
-8258 8267 0
-24 -8258 8260 0
-8260 8268 0
-32 -8260 8262 0
-8262 8269 0
-40 -8262 8264 0
-8264 8270 0
-48 -8264 8266 0
-8266 8271 0
-56 -8266 0
-24 8267 0
-32 -8267 8268 0
-40 -8268 8269 0
-48 -8269 8270 0
-56 -8270 8271 0
-64 -8271 0
8 8272 0
-8272 8273 0
16 -8272 8274 0
-8274 8275 0
24 -8274 8276 0
-8276 8277 0
32 -8276 8278 0
-8278 8279 0
40 -8278 8280 0
-8280 8281 0
48 -8280 0
16 8273 0
-8273 8282 0
24 -8273 8275 0
-8275 8283 0
32 -8275 8277 0
-8277 8284 0
40 -8277 8279 0
-8279 8285 0
48 -8279 8281 0
-8281 8286 0
56 -8281 0
24 8282 0
32 -8282 8283 0
40 -8283 8284 0
48 -8284 8285 0
56 -8285 8286 0
64 -8286 0
-9 8287 0
-8287 8288 0
-17 -8287 8289 0
-8289 8290 0
-25 -8289 8291 0
-8291 8292 0
-33 -8291 8293 0
-8293 8294 0
-41 -8293 8295 0
-8295 8296 0
-49 -8295 0
-17 8288 0
-8288 8297 0
-25 -8288 8290 0
-8290 8298 0
-33 -8290 8292 0
-8292 8299 0
-41 -8292 8294 0
-8294 8300 0
-49 -8294 8296 0
-8296 8301 0
-57 -8296 0
-25 8297 0
-33 -8297 8298 0
-41 -8298 8299 0
-49 -8299 8300 0
-57 -8300 8301 0
-65 -8301 0
9 8302 0
-8302 8303 0
17 -8302 8304 0
-8304 8305 0
25 -8304 8306 0
-8306 8307 0
33 -8306 8308 0
-8308 8309 0
41 -8308 8310 0
-8310 8311 0
49 -8310 0
17 8303 0
-8303 8312 0
25 -8303 8305 0
-8305 8313 0
33 -8305 8307 0
-8307 8314 0
41 -8307 8309 0
-8309 8315 0
49 -8309 8311 0
-8311 8316 0
57 -8311 0
25 8312 0
33 -8312 8313 0
41 -8313 8314 0
49 -8314 8315 0
57 -8315 8316 0
65 -8316 0
-10 8317 0
-8317 8318 0
-18 -8317 8319 0
-8319 8320 0
-26 -8319 8321 0
-8321 8322 0
-34 -8321 8323 0
-8323 8324 0
-42 -8323 8325 0
-8325 8326 0
-50 -8325 0
-18 8318 0
-8318 8327 0
-26 -8318 8320 0
-8320 8328 0
-34 -8320 8322 0
-8322 8329 0
-42 -8322 8324 0
-8324 8330 0
-50 -8324 8326 0
-8326 8331 0
-58 -8326 0
-26 8327 0
-34 -8327 8328 0
-42 -8328 8329 0
-50 -8329 8330 0
-58 -8330 8331 0
-66 -8331 0
10 8332 0
-8332 8333 0
18 -8332 8334 0
-8334 8335 0
26 -8334 8336 0
-8336 8337 0
34 -8336 8338 0
-8338 8339 0
42 -8338 8340 0
-8340 8341 0
50 -8340 0
18 8333 0
-8333 8342 0
26 -8333 8335 0
-8335 8343 0
34 -8335 8337 0
-8337 8344 0
42 -8337 8339 0
-8339 8345 0
50 -8339 8341 0
-8341 8346 0
58 -8341 0
26 8342 0
34 -8342 8343 0
42 -8343 8344 0
50 -8344 8345 0
58 -8345 8346 0
66 -8346 0
-1 8347 0
-8347 8348 0
-10 -8347 8349 0
-8349 8350 0
-19 -8349 8351 0
-8351 8352 0
-28 -8351 8353 0
-8353 8354 0
-37 -8353 8355 0
-8355 8356 0
-46 -8355 0
-10 8348 0
-8348 8357 0
-19 -8348 8350 0
-8350 8358 0
-28 -8350 8352 0
-8352 8359 0
-37 -8352 8354 0
-8354 8360 0
-46 -8354 8356 0
-8356 8361 0
-55 -8356 0
-19 8357 0
-28 -8357 8358 0
-37 -8358 8359 0
-46 -8359 8360 0
-55 -8360 8361 0
-64 -8361 0
1 8362 0
-8362 8363 0
10 -8362 8364 0
-8364 8365 0
19 -8364 8366 0
-8366 8367 0
28 -8366 8368 0
-8368 8369 0
37 -8368 8370 0
-8370 8371 0
46 -8370 0
10 8363 0
-8363 8372 0
19 -8363 8365 0
-8365 8373 0
28 -8365 8367 0
-8367 8374 0
37 -8367 8369 0
-8369 8375 0
46 -8369 8371 0
-8371 8376 0
55 -8371 0
19 8372 0
28 -8372 8373 0
37 -8373 8374 0
46 -8374 8375 0
55 -8375 8376 0
64 -8376 0
-2 8377 0
-8377 8378 0
-11 -8377 8379 0
-8379 8380 0
-20 -8379 8381 0
-8381 8382 0
-29 -8381 8383 0
-8383 8384 0
-38 -8383 8385 0
-8385 8386 0
-47 -8385 0
-11 8378 0
-8378 8387 0
-20 -8378 8380 0
-8380 8388 0
-29 -8380 8382 0
-8382 8389 0
-38 -8382 8384 0
-8384 8390 0
-47 -8384 8386 0
-8386 8391 0
-56 -8386 0
-20 8387 0
-29 -8387 8388 0
-38 -8388 8389 0
-47 -8389 8390 0
-56 -8390 8391 0
-65 -8391 0
2 8392 0
-8392 8393 0
11 -8392 8394 0
-8394 8395 0
20 -8394 8396 0
-8396 8397 0
29 -8396 8398 0
-8398 8399 0
38 -8398 8400 0
-8400 8401 0
47 -8400 0
11 8393 0
-8393 8402 0
20 -8393 8395 0
-8395 8403 0
29 -8395 8397 0
-8397 8404 0
38 -8397 8399 0
-8399 8405 0
47 -8399 8401 0
-8401 8406 0
56 -8401 0
20 8402 0
29 -8402 8403 0
38 -8403 8404 0
47 -8404 8405 0
56 -8405 8406 0
65 -8406 0
-3 8407 0
-8407 8408 0
-12 -8407 8409 0
-8409 8410 0
-21 -8409 8411 0
-8411 8412 0
-30 -8411 8413 0
-8413 8414 0
-39 -8413 8415 0
-8415 8416 0
-48 -8415 0
-12 8408 0
-8408 8417 0
-21 -8408 8410 0
-8410 8418 0
-30 -8410 8412 0
-8412 8419 0
-39 -8412 8414 0
-8414 8420 0
-48 -8414 8416 0
-8416 8421 0
-57 -8416 0
-21 8417 0
-30 -8417 8418 0
-39 -8418 8419 0
-48 -8419 8420 0
-57 -8420 8421 0
-66 -8421 0
3 8422 0
-8422 8423 0
12 -8422 8424 0
-8424 8425 0
21 -8424 8426 0
-8426 8427 0
30 -8426 8428 0
-8428 8429 0
39 -8428 8430 0
-8430 8431 0
48 -8430 0
12 8423 0
-8423 8432 0
21 -8423 8425 0
-8425 8433 0
30 -8425 8427 0
-8427 8434 0
39 -8427 8429 0
-8429 8435 0
48 -8429 8431 0
-8431 8436 0
57 -8431 0
21 8432 0
30 -8432 8433 0
39 -8433 8434 0
48 -8434 8435 0
57 -8435 8436 0
66 -8436 0
