p cnf 4900 19010
1 0
5 6 7 8 0
-5 -6 0
-5 -7 0
-5 -8 0
-6 -7 0
-6 -8 0
-7 -8 0
9 10 11 12 0
-9 -10 0
-9 -11 0
-9 -12 0
-10 -11 0
-10 -12 0
-11 -12 0
-5 -5 13 0
-5 -6 14 0
-5 -7 15 0
-5 -8 16 0
-6 -5 14 0
-6 -6 15 0
-6 -7 16 0
-6 -8 13 0
-7 -5 15 0
-7 -6 16 0
-7 -7 13 0
-7 -8 14 0
-8 -5 16 0
-8 -6 13 0
-8 -7 14 0
-8 -8 15 0
17 18 19 20 0
-17 -18 0
-17 -19 0
-17 -20 0
-18 -19 0
-18 -20 0
-19 -20 0
-5 -9 21 0
-5 -10 22 0
-5 -11 23 0
-5 -12 24 0
-6 -9 22 0
-6 -10 23 0
-6 -11 24 0
-6 -12 21 0
-7 -9 23 0
-7 -10 24 0
-7 -11 21 0
-7 -12 22 0
-8 -9 24 0
-8 -10 21 0
-8 -11 22 0
-8 -12 23 0
25 26 27 28 0
-25 -26 0
-25 -27 0
-25 -28 0
-26 -27 0
-26 -28 0
-27 -28 0
-5 -13 29 0
-5 -14 30 0
-5 -15 31 0
-5 -16 32 0
-6 -13 30 0
-6 -14 31 0
-6 -15 32 0
-6 -16 29 0
-7 -13 31 0
-7 -14 32 0
-7 -15 29 0
-7 -16 30 0
-8 -13 32 0
-8 -14 29 0
-8 -15 30 0
-8 -16 31 0
-9 -9 33 0
-9 -10 34 0
-9 -11 35 0
-9 -12 36 0
-10 -9 34 0
-10 -10 35 0
-10 -11 36 0
-10 -12 33 0
-11 -9 35 0
-11 -10 36 0
-11 -11 33 0
-11 -12 34 0
-12 -9 36 0
-12 -10 33 0
-12 -11 34 0
-12 -12 35 0
-5 -17 37 0
-5 -18 38 0
-5 -19 39 0
-5 -20 40 0
-6 -17 38 0
-6 -18 39 0
-6 -19 40 0
-6 -20 37 0
-7 -17 39 0
-7 -18 40 0
-7 -19 37 0
-7 -20 38 0
-8 -17 40 0
-8 -18 37 0
-8 -19 38 0
-8 -20 39 0
41 42 43 44 0
-41 -42 0
-41 -43 0
-41 -44 0
-42 -43 0
-42 -44 0
-43 -44 0
-5 -21 45 0
-5 -22 46 0
-5 -23 47 0
-5 -24 48 0
-6 -21 46 0
-6 -22 47 0
-6 -23 48 0
-6 -24 45 0
-7 -21 47 0
-7 -22 48 0
-7 -23 45 0
-7 -24 46 0
-8 -21 48 0
-8 -22 45 0
-8 -23 46 0
-8 -24 47 0
49 50 51 52 0
-49 -50 0
-49 -51 0
-49 -52 0
-50 -51 0
-50 -52 0
-51 -52 0
-5 -25 53 0
-5 -26 54 0
-5 -27 55 0
-5 -28 56 0
-6 -25 54 0
-6 -26 55 0
-6 -27 56 0
-6 -28 53 0
-7 -25 55 0
-7 -26 56 0
-7 -27 53 0
-7 -28 54 0
-8 -25 56 0
-8 -26 53 0
-8 -27 54 0
-8 -28 55 0
-9 -17 57 0
-9 -18 58 0
-9 -19 59 0
-9 -20 60 0
-10 -17 58 0
-10 -18 59 0
-10 -19 60 0
-10 -20 57 0
-11 -17 59 0
-11 -18 60 0
-11 -19 57 0
-11 -20 58 0
-12 -17 60 0
-12 -18 57 0
-12 -19 58 0
-12 -20 59 0
-5 -29 61 0
-5 -30 62 0
-5 -31 63 0
-5 -32 64 0
-6 -29 62 0
-6 -30 63 0
-6 -31 64 0
-6 -32 61 0
-7 -29 63 0
-7 -30 64 0
-7 -31 61 0
-7 -32 62 0
-8 -29 64 0
-8 -30 61 0
-8 -31 62 0
-8 -32 63 0
65 66 67 68 0
-65 -66 0
-65 -67 0
-65 -68 0
-66 -67 0
-66 -68 0
-67 -68 0
-5 -33 69 0
-5 -34 70 0
-5 -35 71 0
-5 -36 72 0
-6 -33 70 0
-6 -34 71 0
-6 -35 72 0
-6 -36 69 0
-7 -33 71 0
-7 -34 72 0
-7 -35 69 0
-7 -36 70 0
-8 -33 72 0
-8 -34 69 0
-8 -35 70 0
-8 -36 71 0
73 74 75 76 0
-73 -74 0
-73 -75 0
-73 -76 0
-74 -75 0
-74 -76 0
-75 -76 0
-5 -37 77 0
-5 -38 78 0
-5 -39 79 0
-5 -40 80 0
-6 -37 78 0
-6 -38 79 0
-6 -39 80 0
-6 -40 77 0
-7 -37 79 0
-7 -38 80 0
-7 -39 77 0
-7 -40 78 0
-8 -37 80 0
-8 -38 77 0
-8 -39 78 0
-8 -40 79 0
-9 -25 81 0
-9 -26 82 0
-9 -27 83 0
-9 -28 84 0
-10 -25 82 0
-10 -26 83 0
-10 -27 84 0
-10 -28 81 0
-11 -25 83 0
-11 -26 84 0
-11 -27 81 0
-11 -28 82 0
-12 -25 84 0
-12 -26 81 0
-12 -27 82 0
-12 -28 83 0
-5 -41 85 0
-5 -42 86 0
-5 -43 87 0
-5 -44 88 0
-6 -41 86 0
-6 -42 87 0
-6 -43 88 0
-6 -44 85 0
-7 -41 87 0
-7 -42 88 0
-7 -43 85 0
-7 -44 86 0
-8 -41 88 0
-8 -42 85 0
-8 -43 86 0
-8 -44 87 0
89 90 91 92 0
-89 -90 0
-89 -91 0
-89 -92 0
-90 -91 0
-90 -92 0
-91 -92 0
-5 -45 93 0
-5 -46 94 0
-5 -47 95 0
-5 -48 96 0
-6 -45 94 0
-6 -46 95 0
-6 -47 96 0
-6 -48 93 0
-7 -45 95 0
-7 -46 96 0
-7 -47 93 0
-7 -48 94 0
-8 -45 96 0
-8 -46 93 0
-8 -47 94 0
-8 -48 95 0
-17 -17 97 0
-17 -18 98 0
-17 -19 99 0
-17 -20 100 0
-18 -17 98 0
-18 -18 99 0
-18 -19 100 0
-18 -20 97 0
-19 -17 99 0
-19 -18 100 0
-19 -19 97 0
-19 -20 98 0
-20 -17 100 0
-20 -18 97 0
-20 -19 98 0
-20 -20 99 0
-5 -49 101 0
-5 -50 102 0
-5 -51 103 0
-5 -52 104 0
-6 -49 102 0
-6 -50 103 0
-6 -51 104 0
-6 -52 101 0
-7 -49 103 0
-7 -50 104 0
-7 -51 101 0
-7 -52 102 0
-8 -49 104 0
-8 -50 101 0
-8 -51 102 0
-8 -52 103 0
-9 -33 105 0
-9 -34 106 0
-9 -35 107 0
-9 -36 108 0
-10 -33 106 0
-10 -34 107 0
-10 -35 108 0
-10 -36 105 0
-11 -33 107 0
-11 -34 108 0
-11 -35 105 0
-11 -36 106 0
-12 -33 108 0
-12 -34 105 0
-12 -35 106 0
-12 -36 107 0
-5 -53 109 0
-5 -54 110 0
-5 -55 111 0
-5 -56 112 0
-6 -53 110 0
-6 -54 111 0
-6 -55 112 0
-6 -56 109 0
-7 -53 111 0
-7 -54 112 0
-7 -55 109 0
-7 -56 110 0
-8 -53 112 0
-8 -54 109 0
-8 -55 110 0
-8 -56 111 0
113 114 115 116 0
-113 -114 0
-113 -115 0
-113 -116 0
-114 -115 0
-114 -116 0
-115 -116 0
-5 -57 117 0
-5 -58 118 0
-5 -59 119 0
-5 -60 120 0
-6 -57 118 0
-6 -58 119 0
-6 -59 120 0
-6 -60 117 0
-7 -57 119 0
-7 -58 120 0
-7 -59 117 0
-7 -60 118 0
-8 -57 120 0
-8 -58 117 0
-8 -59 118 0
-8 -60 119 0
121 122 123 124 0
-121 -122 0
-121 -123 0
-121 -124 0
-122 -123 0
-122 -124 0
-123 -124 0
-5 -61 125 0
-5 -62 126 0
-5 -63 127 0
-5 -64 128 0
-6 -61 126 0
-6 -62 127 0
-6 -63 128 0
-6 -64 125 0
-7 -61 127 0
-7 -62 128 0
-7 -63 125 0
-7 -64 126 0
-8 -61 128 0
-8 -62 125 0
-8 -63 126 0
-8 -64 127 0
-9 -41 129 0
-9 -42 130 0
-9 -43 131 0
-9 -44 132 0
-10 -41 130 0
-10 -42 131 0
-10 -43 132 0
-10 -44 129 0
-11 -41 131 0
-11 -42 132 0
-11 -43 129 0
-11 -44 130 0
-12 -41 132 0
-12 -42 129 0
-12 -43 130 0
-12 -44 131 0
-5 -65 133 0
-5 -66 134 0
-5 -67 135 0
-5 -68 136 0
-6 -65 134 0
-6 -66 135 0
-6 -67 136 0
-6 -68 133 0
-7 -65 135 0
-7 -66 136 0
-7 -67 133 0
-7 -68 134 0
-8 -65 136 0
-8 -66 133 0
-8 -67 134 0
-8 -68 135 0
-17 -25 137 0
-17 -26 138 0
-17 -27 139 0
-17 -28 140 0
-18 -25 138 0
-18 -26 139 0
-18 -27 140 0
-18 -28 137 0
-19 -25 139 0
-19 -26 140 0
-19 -27 137 0
-19 -28 138 0
-20 -25 140 0
-20 -26 137 0
-20 -27 138 0
-20 -28 139 0
-5 -69 141 0
-5 -70 142 0
-5 -71 143 0
-5 -72 144 0
-6 -69 142 0
-6 -70 143 0
-6 -71 144 0
-6 -72 141 0
-7 -69 143 0
-7 -70 144 0
-7 -71 141 0
-7 -72 142 0
-8 -69 144 0
-8 -70 141 0
-8 -71 142 0
-8 -72 143 0
145 146 147 148 0
-145 -146 0
-145 -147 0
-145 -148 0
-146 -147 0
-146 -148 0
-147 -148 0
-5 -73 149 0
-5 -74 150 0
-5 -75 151 0
-5 -76 152 0
-6 -73 150 0
-6 -74 151 0
-6 -75 152 0
-6 -76 149 0
-7 -73 151 0
-7 -74 152 0
-7 -75 149 0
-7 -76 150 0
-8 -73 152 0
-8 -74 149 0
-8 -75 150 0
-8 -76 151 0
-9 -49 153 0
-9 -50 154 0
-9 -51 155 0
-9 -52 156 0
-10 -49 154 0
-10 -50 155 0
-10 -51 156 0
-10 -52 153 0
-11 -49 155 0
-11 -50 156 0
-11 -51 153 0
-11 -52 154 0
-12 -49 156 0
-12 -50 153 0
-12 -51 154 0
-12 -52 155 0
-5 -77 157 0
-5 -78 158 0
-5 -79 159 0
-5 -80 160 0
-6 -77 158 0
-6 -78 159 0
-6 -79 160 0
-6 -80 157 0
-7 -77 159 0
-7 -78 160 0
-7 -79 157 0
-7 -80 158 0
-8 -77 160 0
-8 -78 157 0
-8 -79 158 0
-8 -80 159 0
161 162 163 164 0
-161 -162 0
-161 -163 0
-161 -164 0
-162 -163 0
-162 -164 0
-163 -164 0
-5 -81 165 0
-5 -82 166 0
-5 -83 167 0
-5 -84 168 0
-6 -81 166 0
-6 -82 167 0
-6 -83 168 0
-6 -84 165 0
-7 -81 167 0
-7 -82 168 0
-7 -83 165 0
-7 -84 166 0
-8 -81 168 0
-8 -82 165 0
-8 -83 166 0
-8 -84 167 0
169 170 171 172 0
-169 -170 0
-169 -171 0
-169 -172 0
-170 -171 0
-170 -172 0
-171 -172 0
-5 -85 173 0
-5 -86 174 0
-5 -87 175 0
-5 -88 176 0
-6 -85 174 0
-6 -86 175 0
-6 -87 176 0
-6 -88 173 0
-7 -85 175 0
-7 -86 176 0
-7 -87 173 0
-7 -88 174 0
-8 -85 176 0
-8 -86 173 0
-8 -87 174 0
-8 -88 175 0
-9 -57 177 0
-9 -58 178 0
-9 -59 179 0
-9 -60 180 0
-10 -57 178 0
-10 -58 179 0
-10 -59 180 0
-10 -60 177 0
-11 -57 179 0
-11 -58 180 0
-11 -59 177 0
-11 -60 178 0
-12 -57 180 0
-12 -58 177 0
-12 -59 178 0
-12 -60 179 0
-5 -89 181 0
-5 -90 182 0
-5 -91 183 0
-5 -92 184 0
-6 -89 182 0
-6 -90 183 0
-6 -91 184 0
-6 -92 181 0
-7 -89 183 0
-7 -90 184 0
-7 -91 181 0
-7 -92 182 0
-8 -89 184 0
-8 -90 181 0
-8 -91 182 0
-8 -92 183 0
185 186 187 188 0
-185 -186 0
-185 -187 0
-185 -188 0
-186 -187 0
-186 -188 0
-187 -188 0
-5 -93 189 0
-5 -94 190 0
-5 -95 191 0
-5 -96 192 0
-6 -93 190 0
-6 -94 191 0
-6 -95 192 0
-6 -96 189 0
-7 -93 191 0
-7 -94 192 0
-7 -95 189 0
-7 -96 190 0
-8 -93 192 0
-8 -94 189 0
-8 -95 190 0
-8 -96 191 0
-25 -25 193 0
-25 -26 194 0
-25 -27 195 0
-25 -28 196 0
-26 -25 194 0
-26 -26 195 0
-26 -27 196 0
-26 -28 193 0
-27 -25 195 0
-27 -26 196 0
-27 -27 193 0
-27 -28 194 0
-28 -25 196 0
-28 -26 193 0
-28 -27 194 0
-28 -28 195 0
-5 -97 197 0
-5 -98 198 0
-5 -99 199 0
-5 -100 200 0
-6 -97 198 0
-6 -98 199 0
-6 -99 200 0
-6 -100 197 0
-7 -97 199 0
-7 -98 200 0
-7 -99 197 0
-7 -100 198 0
-8 -97 200 0
-8 -98 197 0
-8 -99 198 0
-8 -100 199 0
-9 -65 201 0
-9 -66 202 0
-9 -67 203 0
-9 -68 204 0
-10 -65 202 0
-10 -66 203 0
-10 -67 204 0
-10 -68 201 0
-11 -65 203 0
-11 -66 204 0
-11 -67 201 0
-11 -68 202 0
-12 -65 204 0
-12 -66 201 0
-12 -67 202 0
-12 -68 203 0
-5 -101 205 0
-5 -102 206 0
-5 -103 207 0
-5 -104 208 0
-6 -101 206 0
-6 -102 207 0
-6 -103 208 0
-6 -104 205 0
-7 -101 207 0
-7 -102 208 0
-7 -103 205 0
-7 -104 206 0
-8 -101 208 0
-8 -102 205 0
-8 -103 206 0
-8 -104 207 0
209 210 211 212 0
-209 -210 0
-209 -211 0
-209 -212 0
-210 -211 0
-210 -212 0
-211 -212 0
-5 -105 213 0
-5 -106 214 0
-5 -107 215 0
-5 -108 216 0
-6 -105 214 0
-6 -106 215 0
-6 -107 216 0
-6 -108 213 0
-7 -105 215 0
-7 -106 216 0
-7 -107 213 0
-7 -108 214 0
-8 -105 216 0
-8 -106 213 0
-8 -107 214 0
-8 -108 215 0
-17 -41 217 0
-17 -42 218 0
-17 -43 219 0
-17 -44 220 0
-18 -41 218 0
-18 -42 219 0
-18 -43 220 0
-18 -44 217 0
-19 -41 219 0
-19 -42 220 0
-19 -43 217 0
-19 -44 218 0
-20 -41 220 0
-20 -42 217 0
-20 -43 218 0
-20 -44 219 0
-5 -109 221 0
-5 -110 222 0
-5 -111 223 0
-5 -112 224 0
-6 -109 222 0
-6 -110 223 0
-6 -111 224 0
-6 -112 221 0
-7 -109 223 0
-7 -110 224 0
-7 -111 221 0
-7 -112 222 0
-8 -109 224 0
-8 -110 221 0
-8 -111 222 0
-8 -112 223 0
-9 -73 225 0
-9 -74 226 0
-9 -75 227 0
-9 -76 228 0
-10 -73 226 0
-10 -74 227 0
-10 -75 228 0
-10 -76 225 0
-11 -73 227 0
-11 -74 228 0
-11 -75 225 0
-11 -76 226 0
-12 -73 228 0
-12 -74 225 0
-12 -75 226 0
-12 -76 227 0
-5 -113 229 0
-5 -114 230 0
-5 -115 231 0
-5 -116 232 0
-6 -113 230 0
-6 -114 231 0
-6 -115 232 0
-6 -116 229 0
-7 -113 231 0
-7 -114 232 0
-7 -115 229 0
-7 -116 230 0
-8 -113 232 0
-8 -114 229 0
-8 -115 230 0
-8 -116 231 0
233 234 235 236 0
-233 -234 0
-233 -235 0
-233 -236 0
-234 -235 0
-234 -236 0
-235 -236 0
-5 -117 237 0
-5 -118 238 0
-5 -119 239 0
-5 -120 240 0
-6 -117 238 0
-6 -118 239 0
-6 -119 240 0
-6 -120 237 0
-7 -117 239 0
-7 -118 240 0
-7 -119 237 0
-7 -120 238 0
-8 -117 240 0
-8 -118 237 0
-8 -119 238 0
-8 -120 239 0
241 242 243 244 0
-241 -242 0
-241 -243 0
-241 -244 0
-242 -243 0
-242 -244 0
-243 -244 0
-5 -121 245 0
-5 -122 246 0
-5 -123 247 0
-5 -124 248 0
-6 -121 246 0
-6 -122 247 0
-6 -123 248 0
-6 -124 245 0
-7 -121 247 0
-7 -122 248 0
-7 -123 245 0
-7 -124 246 0
-8 -121 248 0
-8 -122 245 0
-8 -123 246 0
-8 -124 247 0
-9 -81 249 0
-9 -82 250 0
-9 -83 251 0
-9 -84 252 0
-10 -81 250 0
-10 -82 251 0
-10 -83 252 0
-10 -84 249 0
-11 -81 251 0
-11 -82 252 0
-11 -83 249 0
-11 -84 250 0
-12 -81 252 0
-12 -82 249 0
-12 -83 250 0
-12 -84 251 0
-5 -125 253 0
-5 -126 254 0
-5 -127 255 0
-5 -128 256 0
-6 -125 254 0
-6 -126 255 0
-6 -127 256 0
-6 -128 253 0
-7 -125 255 0
-7 -126 256 0
-7 -127 253 0
-7 -128 254 0
-8 -125 256 0
-8 -126 253 0
-8 -127 254 0
-8 -128 255 0
-17 -49 257 0
-17 -50 258 0
-17 -51 259 0
-17 -52 260 0
-18 -49 258 0
-18 -50 259 0
-18 -51 260 0
-18 -52 257 0
-19 -49 259 0
-19 -50 260 0
-19 -51 257 0
-19 -52 258 0
-20 -49 260 0
-20 -50 257 0
-20 -51 258 0
-20 -52 259 0
-5 -129 261 0
-5 -130 262 0
-5 -131 263 0
-5 -132 264 0
-6 -129 262 0
-6 -130 263 0
-6 -131 264 0
-6 -132 261 0
-7 -129 263 0
-7 -130 264 0
-7 -131 261 0
-7 -132 262 0
-8 -129 264 0
-8 -130 261 0
-8 -131 262 0
-8 -132 263 0
265 266 267 268 0
-265 -266 0
-265 -267 0
-265 -268 0
-266 -267 0
-266 -268 0
-267 -268 0
-5 -133 269 0
-5 -134 270 0
-5 -135 271 0
-5 -136 272 0
-6 -133 270 0
-6 -134 271 0
-6 -135 272 0
-6 -136 269 0
-7 -133 271 0
-7 -134 272 0
-7 -135 269 0
-7 -136 270 0
-8 -133 272 0
-8 -134 269 0
-8 -135 270 0
-8 -136 271 0
-9 -89 273 0
-9 -90 274 0
-9 -91 275 0
-9 -92 276 0
-10 -89 274 0
-10 -90 275 0
-10 -91 276 0
-10 -92 273 0
-11 -89 275 0
-11 -90 276 0
-11 -91 273 0
-11 -92 274 0
-12 -89 276 0
-12 -90 273 0
-12 -91 274 0
-12 -92 275 0
-5 -137 277 0
-5 -138 278 0
-5 -139 279 0
-5 -140 280 0
-6 -137 278 0
-6 -138 279 0
-6 -139 280 0
-6 -140 277 0
-7 -137 279 0
-7 -138 280 0
-7 -139 277 0
-7 -140 278 0
-8 -137 280 0
-8 -138 277 0
-8 -139 278 0
-8 -140 279 0
281 282 283 284 0
-281 -282 0
-281 -283 0
-281 -284 0
-282 -283 0
-282 -284 0
-283 -284 0
-5 -141 285 0
-5 -142 286 0
-5 -143 287 0
-5 -144 288 0
-6 -141 286 0
-6 -142 287 0
-6 -143 288 0
-6 -144 285 0
-7 -141 287 0
-7 -142 288 0
-7 -143 285 0
-7 -144 286 0
-8 -141 288 0
-8 -142 285 0
-8 -143 286 0
-8 -144 287 0
289 290 291 292 0
-289 -290 0
-289 -291 0
-289 -292 0
-290 -291 0
-290 -292 0
-291 -292 0
-5 -145 293 0
-5 -146 294 0
-5 -147 295 0
-5 -148 296 0
-6 -145 294 0
-6 -146 295 0
-6 -147 296 0
-6 -148 293 0
-7 -145 295 0
-7 -146 296 0
-7 -147 293 0
-7 -148 294 0
-8 -145 296 0
-8 -146 293 0
-8 -147 294 0
-8 -148 295 0
-9 -97 297 0
-9 -98 298 0
-9 -99 299 0
-9 -100 300 0
-10 -97 298 0
-10 -98 299 0
-10 -99 300 0
-10 -100 297 0
-11 -97 299 0
-11 -98 300 0
-11 -99 297 0
-11 -100 298 0
-12 -97 300 0
-12 -98 297 0
-12 -99 298 0
-12 -100 299 0
-5 -149 301 0
-5 -150 302 0
-5 -151 303 0
-5 -152 304 0
-6 -149 302 0
-6 -150 303 0
-6 -151 304 0
-6 -152 301 0
-7 -149 303 0
-7 -150 304 0
-7 -151 301 0
-7 -152 302 0
-8 -149 304 0
-8 -150 301 0
-8 -151 302 0
-8 -152 303 0
-25 -41 305 0
-25 -42 306 0
-25 -43 307 0
-25 -44 308 0
-26 -41 306 0
-26 -42 307 0
-26 -43 308 0
-26 -44 305 0
-27 -41 307 0
-27 -42 308 0
-27 -43 305 0
-27 -44 306 0
-28 -41 308 0
-28 -42 305 0
-28 -43 306 0
-28 -44 307 0
-5 -153 309 0
-5 -154 310 0
-5 -155 311 0
-5 -156 312 0
-6 -153 310 0
-6 -154 311 0
-6 -155 312 0
-6 -156 309 0
-7 -153 311 0
-7 -154 312 0
-7 -155 309 0
-7 -156 310 0
-8 -153 312 0
-8 -154 309 0
-8 -155 310 0
-8 -156 311 0
313 314 315 316 0
-313 -314 0
-313 -315 0
-313 -316 0
-314 -315 0
-314 -316 0
-315 -316 0
-5 -157 317 0
-5 -158 318 0
-5 -159 319 0
-5 -160 320 0
-6 -157 318 0
-6 -158 319 0
-6 -159 320 0
-6 -160 317 0
-7 -157 319 0
-7 -158 320 0
-7 -159 317 0
-7 -160 318 0
-8 -157 320 0
-8 -158 317 0
-8 -159 318 0
-8 -160 319 0
-9 -105 321 0
-9 -106 322 0
-9 -107 323 0
-9 -108 324 0
-10 -105 322 0
-10 -106 323 0
-10 -107 324 0
-10 -108 321 0
-11 -105 323 0
-11 -106 324 0
-11 -107 321 0
-11 -108 322 0
-12 -105 324 0
-12 -106 321 0
-12 -107 322 0
-12 -108 323 0
-5 -161 325 0
-5 -162 326 0
-5 -163 327 0
-5 -164 328 0
-6 -161 326 0
-6 -162 327 0
-6 -163 328 0
-6 -164 325 0
-7 -161 327 0
-7 -162 328 0
-7 -163 325 0
-7 -164 326 0
-8 -161 328 0
-8 -162 325 0
-8 -163 326 0
-8 -164 327 0
329 330 331 332 0
-329 -330 0
-329 -331 0
-329 -332 0
-330 -331 0
-330 -332 0
-331 -332 0
-5 -165 333 0
-5 -166 334 0
-5 -167 335 0
-5 -168 336 0
-6 -165 334 0
-6 -166 335 0
-6 -167 336 0
-6 -168 333 0
-7 -165 335 0
-7 -166 336 0
-7 -167 333 0
-7 -168 334 0
-8 -165 336 0
-8 -166 333 0
-8 -167 334 0
-8 -168 335 0
-17 -65 337 0
-17 -66 338 0
-17 -67 339 0
-17 -68 340 0
-18 -65 338 0
-18 -66 339 0
-18 -67 340 0
-18 -68 337 0
-19 -65 339 0
-19 -66 340 0
-19 -67 337 0
-19 -68 338 0
-20 -65 340 0
-20 -66 337 0
-20 -67 338 0
-20 -68 339 0
-5 -169 341 0
-5 -170 342 0
-5 -171 343 0
-5 -172 344 0
-6 -169 342 0
-6 -170 343 0
-6 -171 344 0
-6 -172 341 0
-7 -169 343 0
-7 -170 344 0
-7 -171 341 0
-7 -172 342 0
-8 -169 344 0
-8 -170 341 0
-8 -171 342 0
-8 -172 343 0
-9 -113 345 0
-9 -114 346 0
-9 -115 347 0
-9 -116 348 0
-10 -113 346 0
-10 -114 347 0
-10 -115 348 0
-10 -116 345 0
-11 -113 347 0
-11 -114 348 0
-11 -115 345 0
-11 -116 346 0
-12 -113 348 0
-12 -114 345 0
-12 -115 346 0
-12 -116 347 0
-5 -173 349 0
-5 -174 350 0
-5 -175 351 0
-5 -176 352 0
-6 -173 350 0
-6 -174 351 0
-6 -175 352 0
-6 -176 349 0
-7 -173 351 0
-7 -174 352 0
-7 -175 349 0
-7 -176 350 0
-8 -173 352 0
-8 -174 349 0
-8 -175 350 0
-8 -176 351 0
353 354 355 356 0
-353 -354 0
-353 -355 0
-353 -356 0
-354 -355 0
-354 -356 0
-355 -356 0
-5 -177 357 0
-5 -178 358 0
-5 -179 359 0
-5 -180 360 0
-6 -177 358 0
-6 -178 359 0
-6 -179 360 0
-6 -180 357 0
-7 -177 359 0
-7 -178 360 0
-7 -179 357 0
-7 -180 358 0
-8 -177 360 0
-8 -178 357 0
-8 -179 358 0
-8 -180 359 0
-25 -49 361 0
-25 -50 362 0
-25 -51 363 0
-25 -52 364 0
-26 -49 362 0
-26 -50 363 0
-26 -51 364 0
-26 -52 361 0
-27 -49 363 0
-27 -50 364 0
-27 -51 361 0
-27 -52 362 0
-28 -49 364 0
-28 -50 361 0
-28 -51 362 0
-28 -52 363 0
-5 -181 365 0
-5 -182 366 0
-5 -183 367 0
-5 -184 368 0
-6 -181 366 0
-6 -182 367 0
-6 -183 368 0
-6 -184 365 0
-7 -181 367 0
-7 -182 368 0
-7 -183 365 0
-7 -184 366 0
-8 -181 368 0
-8 -182 365 0
-8 -183 366 0
-8 -184 367 0
-9 -121 369 0
-9 -122 370 0
-9 -123 371 0
-9 -124 372 0
-10 -121 370 0
-10 -122 371 0
-10 -123 372 0
-10 -124 369 0
-11 -121 371 0
-11 -122 372 0
-11 -123 369 0
-11 -124 370 0
-12 -121 372 0
-12 -122 369 0
-12 -123 370 0
-12 -124 371 0
-5 -185 373 0
-5 -186 374 0
-5 -187 375 0
-5 -188 376 0
-6 -185 374 0
-6 -186 375 0
-6 -187 376 0
-6 -188 373 0
-7 -185 375 0
-7 -186 376 0
-7 -187 373 0
-7 -188 374 0
-8 -185 376 0
-8 -186 373 0
-8 -187 374 0
-8 -188 375 0
-17 -73 377 0
-17 -74 378 0
-17 -75 379 0
-17 -76 380 0
-18 -73 378 0
-18 -74 379 0
-18 -75 380 0
-18 -76 377 0
-19 -73 379 0
-19 -74 380 0
-19 -75 377 0
-19 -76 378 0
-20 -73 380 0
-20 -74 377 0
-20 -75 378 0
-20 -76 379 0
-5 -189 381 0
-5 -190 382 0
-5 -191 383 0
-5 -192 384 0
-6 -189 382 0
-6 -190 383 0
-6 -191 384 0
-6 -192 381 0
-7 -189 383 0
-7 -190 384 0
-7 -191 381 0
-7 -192 382 0
-8 -189 384 0
-8 -190 381 0
-8 -191 382 0
-8 -192 383 0
385 386 387 388 0
-385 -386 0
-385 -387 0
-385 -388 0
-386 -387 0
-386 -388 0
-387 -388 0
-5 -193 389 0
-5 -194 390 0
-5 -195 391 0
-5 -196 392 0
-6 -193 390 0
-6 -194 391 0
-6 -195 392 0
-6 -196 389 0
-7 -193 391 0
-7 -194 392 0
-7 -195 389 0
-7 -196 390 0
-8 -193 392 0
-8 -194 389 0
-8 -195 390 0
-8 -196 391 0
-9 -129 393 0
-9 -130 394 0
-9 -131 395 0
-9 -132 396 0
-10 -129 394 0
-10 -130 395 0
-10 -131 396 0
-10 -132 393 0
-11 -129 395 0
-11 -130 396 0
-11 -131 393 0
-11 -132 394 0
-12 -129 396 0
-12 -130 393 0
-12 -131 394 0
-12 -132 395 0
-5 -197 397 0
-5 -198 398 0
-5 -199 399 0
-5 -200 400 0
-6 -197 398 0
-6 -198 399 0
-6 -199 400 0
-6 -200 397 0
-7 -197 399 0
-7 -198 400 0
-7 -199 397 0
-7 -200 398 0
-8 -197 400 0
-8 -198 397 0
-8 -199 398 0
-8 -200 399 0
401 402 403 404 0
-401 -402 0
-401 -403 0
-401 -404 0
-402 -403 0
-402 -404 0
-403 -404 0
-5 -201 405 0
-5 -202 406 0
-5 -203 407 0
-5 -204 408 0
-6 -201 406 0
-6 -202 407 0
-6 -203 408 0
-6 -204 405 0
-7 -201 407 0
-7 -202 408 0
-7 -203 405 0
-7 -204 406 0
-8 -201 408 0
-8 -202 405 0
-8 -203 406 0
-8 -204 407 0
409 410 411 412 0
-409 -410 0
-409 -411 0
-409 -412 0
-410 -411 0
-410 -412 0
-411 -412 0
-5 -205 413 0
-5 -206 414 0
-5 -207 415 0
-5 -208 416 0
-6 -205 414 0
-6 -206 415 0
-6 -207 416 0
-6 -208 413 0
-7 -205 415 0
-7 -206 416 0
-7 -207 413 0
-7 -208 414 0
-8 -205 416 0
-8 -206 413 0
-8 -207 414 0
-8 -208 415 0
-9 -137 417 0
-9 -138 418 0
-9 -139 419 0
-9 -140 420 0
-10 -137 418 0
-10 -138 419 0
-10 -139 420 0
-10 -140 417 0
-11 -137 419 0
-11 -138 420 0
-11 -139 417 0
-11 -140 418 0
-12 -137 420 0
-12 -138 417 0
-12 -139 418 0
-12 -140 419 0
-5 -209 421 0
-5 -210 422 0
-5 -211 423 0
-5 -212 424 0
-6 -209 422 0
-6 -210 423 0
-6 -211 424 0
-6 -212 421 0
-7 -209 423 0
-7 -210 424 0
-7 -211 421 0
-7 -212 422 0
-8 -209 424 0
-8 -210 421 0
-8 -211 422 0
-8 -212 423 0
425 426 427 428 0
-425 -426 0
-425 -427 0
-425 -428 0
-426 -427 0
-426 -428 0
-427 -428 0
-5 -213 429 0
-5 -214 430 0
-5 -215 431 0
-5 -216 432 0
-6 -213 430 0
-6 -214 431 0
-6 -215 432 0
-6 -216 429 0
-7 -213 431 0
-7 -214 432 0
-7 -215 429 0
-7 -216 430 0
-8 -213 432 0
-8 -214 429 0
-8 -215 430 0
-8 -216 431 0
433 434 435 436 0
-433 -434 0
-433 -435 0
-433 -436 0
-434 -435 0
-434 -436 0
-435 -436 0
-5 -217 437 0
-5 -218 438 0
-5 -219 439 0
-5 -220 440 0
-6 -217 438 0
-6 -218 439 0
-6 -219 440 0
-6 -220 437 0
-7 -217 439 0
-7 -218 440 0
-7 -219 437 0
-7 -220 438 0
-8 -217 440 0
-8 -218 437 0
-8 -219 438 0
-8 -220 439 0
-9 -145 441 0
-9 -146 442 0
-9 -147 443 0
-9 -148 444 0
-10 -145 442 0
-10 -146 443 0
-10 -147 444 0
-10 -148 441 0
-11 -145 443 0
-11 -146 444 0
-11 -147 441 0
-11 -148 442 0
-12 -145 444 0
-12 -146 441 0
-12 -147 442 0
-12 -148 443 0
-5 -221 445 0
-5 -222 446 0
-5 -223 447 0
-5 -224 448 0
-6 -221 446 0
-6 -222 447 0
-6 -223 448 0
-6 -224 445 0
-7 -221 447 0
-7 -222 448 0
-7 -223 445 0
-7 -224 446 0
-8 -221 448 0
-8 -222 445 0
-8 -223 446 0
-8 -224 447 0
449 450 451 452 0
-449 -450 0
-449 -451 0
-449 -452 0
-450 -451 0
-450 -452 0
-451 -452 0
-5 -225 453 0
-5 -226 454 0
-5 -227 455 0
-5 -228 456 0
-6 -225 454 0
-6 -226 455 0
-6 -227 456 0
-6 -228 453 0
-7 -225 455 0
-7 -226 456 0
-7 -227 453 0
-7 -228 454 0
-8 -225 456 0
-8 -226 453 0
-8 -227 454 0
-8 -228 455 0
-17 -89 457 0
-17 -90 458 0
-17 -91 459 0
-17 -92 460 0
-18 -89 458 0
-18 -90 459 0
-18 -91 460 0
-18 -92 457 0
-19 -89 459 0
-19 -90 460 0
-19 -91 457 0
-19 -92 458 0
-20 -89 460 0
-20 -90 457 0
-20 -91 458 0
-20 -92 459 0
-5 -229 461 0
-5 -230 462 0
-5 -231 463 0
-5 -232 464 0
-6 -229 462 0
-6 -230 463 0
-6 -231 464 0
-6 -232 461 0
-7 -229 463 0
-7 -230 464 0
-7 -231 461 0
-7 -232 462 0
-8 -229 464 0
-8 -230 461 0
-8 -231 462 0
-8 -232 463 0
-9 -153 465 0
-9 -154 466 0
-9 -155 467 0
-9 -156 468 0
-10 -153 466 0
-10 -154 467 0
-10 -155 468 0
-10 -156 465 0
-11 -153 467 0
-11 -154 468 0
-11 -155 465 0
-11 -156 466 0
-12 -153 468 0
-12 -154 465 0
-12 -155 466 0
-12 -156 467 0
-5 -233 469 0
-5 -234 470 0
-5 -235 471 0
-5 -236 472 0
-6 -233 470 0
-6 -234 471 0
-6 -235 472 0
-6 -236 469 0
-7 -233 471 0
-7 -234 472 0
-7 -235 469 0
-7 -236 470 0
-8 -233 472 0
-8 -234 469 0
-8 -235 470 0
-8 -236 471 0
-25 -65 473 0
-25 -66 474 0
-25 -67 475 0
-25 -68 476 0
-26 -65 474 0
-26 -66 475 0
-26 -67 476 0
-26 -68 473 0
-27 -65 475 0
-27 -66 476 0
-27 -67 473 0
-27 -68 474 0
-28 -65 476 0
-28 -66 473 0
-28 -67 474 0
-28 -68 475 0
-5 -237 477 0
-5 -238 478 0
-5 -239 479 0
-5 -240 480 0
-6 -237 478 0
-6 -238 479 0
-6 -239 480 0
-6 -240 477 0
-7 -237 479 0
-7 -238 480 0
-7 -239 477 0
-7 -240 478 0
-8 -237 480 0
-8 -238 477 0
-8 -239 478 0
-8 -240 479 0
-41 -41 481 0
-41 -42 482 0
-41 -43 483 0
-41 -44 484 0
-42 -41 482 0
-42 -42 483 0
-42 -43 484 0
-42 -44 481 0
-43 -41 483 0
-43 -42 484 0
-43 -43 481 0
-43 -44 482 0
-44 -41 484 0
-44 -42 481 0
-44 -43 482 0
-44 -44 483 0
-5 -241 485 0
-5 -242 486 0
-5 -243 487 0
-5 -244 488 0
-6 -241 486 0
-6 -242 487 0
-6 -243 488 0
-6 -244 485 0
-7 -241 487 0
-7 -242 488 0
-7 -243 485 0
-7 -244 486 0
-8 -241 488 0
-8 -242 485 0
-8 -243 486 0
-8 -244 487 0
-9 -161 489 0
-9 -162 490 0
-9 -163 491 0
-9 -164 492 0
-10 -161 490 0
-10 -162 491 0
-10 -163 492 0
-10 -164 489 0
-11 -161 491 0
-11 -162 492 0
-11 -163 489 0
-11 -164 490 0
-12 -161 492 0
-12 -162 489 0
-12 -163 490 0
-12 -164 491 0
-5 -245 493 0
-5 -246 494 0
-5 -247 495 0
-5 -248 496 0
-6 -245 494 0
-6 -246 495 0
-6 -247 496 0
-6 -248 493 0
-7 -245 495 0
-7 -246 496 0
-7 -247 493 0
-7 -248 494 0
-8 -245 496 0
-8 -246 493 0
-8 -247 494 0
-8 -248 495 0
-17 -97 497 0
-17 -98 498 0
-17 -99 499 0
-17 -100 500 0
-18 -97 498 0
-18 -98 499 0
-18 -99 500 0
-18 -100 497 0
-19 -97 499 0
-19 -98 500 0
-19 -99 497 0
-19 -100 498 0
-20 -97 500 0
-20 -98 497 0
-20 -99 498 0
-20 -100 499 0
-5 -249 501 0
-5 -250 502 0
-5 -251 503 0
-5 -252 504 0
-6 -249 502 0
-6 -250 503 0
-6 -251 504 0
-6 -252 501 0
-7 -249 503 0
-7 -250 504 0
-7 -251 501 0
-7 -252 502 0
-8 -249 504 0
-8 -250 501 0
-8 -251 502 0
-8 -252 503 0
505 506 507 508 0
-505 -506 0
-505 -507 0
-505 -508 0
-506 -507 0
-506 -508 0
-507 -508 0
-5 -253 509 0
-5 -254 510 0
-5 -255 511 0
-5 -256 512 0
-6 -253 510 0
-6 -254 511 0
-6 -255 512 0
-6 -256 509 0
-7 -253 511 0
-7 -254 512 0
-7 -255 509 0
-7 -256 510 0
-8 -253 512 0
-8 -254 509 0
-8 -255 510 0
-8 -256 511 0
-9 -169 513 0
-9 -170 514 0
-9 -171 515 0
-9 -172 516 0
-10 -169 514 0
-10 -170 515 0
-10 -171 516 0
-10 -172 513 0
-11 -169 515 0
-11 -170 516 0
-11 -171 513 0
-11 -172 514 0
-12 -169 516 0
-12 -170 513 0
-12 -171 514 0
-12 -172 515 0
-5 -257 517 0
-5 -258 518 0
-5 -259 519 0
-5 -260 520 0
-6 -257 518 0
-6 -258 519 0
-6 -259 520 0
-6 -260 517 0
-7 -257 519 0
-7 -258 520 0
-7 -259 517 0
-7 -260 518 0
-8 -257 520 0
-8 -258 517 0
-8 -259 518 0
-8 -260 519 0
521 522 523 524 0
-521 -522 0
-521 -523 0
-521 -524 0
-522 -523 0
-522 -524 0
-523 -524 0
-5 -261 525 0
-5 -262 526 0
-5 -263 527 0
-5 -264 528 0
-6 -261 526 0
-6 -262 527 0
-6 -263 528 0
-6 -264 525 0
-7 -261 527 0
-7 -262 528 0
-7 -263 525 0
-7 -264 526 0
-8 -261 528 0
-8 -262 525 0
-8 -263 526 0
-8 -264 527 0
-25 -73 529 0
-25 -74 530 0
-25 -75 531 0
-25 -76 532 0
-26 -73 530 0
-26 -74 531 0
-26 -75 532 0
-26 -76 529 0
-27 -73 531 0
-27 -74 532 0
-27 -75 529 0
-27 -76 530 0
-28 -73 532 0
-28 -74 529 0
-28 -75 530 0
-28 -76 531 0
-5 -265 533 0
-5 -266 534 0
-5 -267 535 0
-5 -268 536 0
-6 -265 534 0
-6 -266 535 0
-6 -267 536 0
-6 -268 533 0
-7 -265 535 0
-7 -266 536 0
-7 -267 533 0
-7 -268 534 0
-8 -265 536 0
-8 -266 533 0
-8 -267 534 0
-8 -268 535 0
-9 -177 537 0
-9 -178 538 0
-9 -179 539 0
-9 -180 540 0
-10 -177 538 0
-10 -178 539 0
-10 -179 540 0
-10 -180 537 0
-11 -177 539 0
-11 -178 540 0
-11 -179 537 0
-11 -180 538 0
-12 -177 540 0
-12 -178 537 0
-12 -179 538 0
-12 -180 539 0
-5 -269 541 0
-5 -270 542 0
-5 -271 543 0
-5 -272 544 0
-6 -269 542 0
-6 -270 543 0
-6 -271 544 0
-6 -272 541 0
-7 -269 543 0
-7 -270 544 0
-7 -271 541 0
-7 -272 542 0
-8 -269 544 0
-8 -270 541 0
-8 -271 542 0
-8 -272 543 0
545 546 547 548 0
-545 -546 0
-545 -547 0
-545 -548 0
-546 -547 0
-546 -548 0
-547 -548 0
-5 -273 549 0
-5 -274 550 0
-5 -275 551 0
-5 -276 552 0
-6 -273 550 0
-6 -274 551 0
-6 -275 552 0
-6 -276 549 0
-7 -273 551 0
-7 -274 552 0
-7 -275 549 0
-7 -276 550 0
-8 -273 552 0
-8 -274 549 0
-8 -275 550 0
-8 -276 551 0
553 554 555 556 0
-553 -554 0
-553 -555 0
-553 -556 0
-554 -555 0
-554 -556 0
-555 -556 0
-5 -277 557 0
-5 -278 558 0
-5 -279 559 0
-5 -280 560 0
-6 -277 558 0
-6 -278 559 0
-6 -279 560 0
-6 -280 557 0
-7 -277 559 0
-7 -278 560 0
-7 -279 557 0
-7 -280 558 0
-8 -277 560 0
-8 -278 557 0
-8 -279 558 0
-8 -280 559 0
-9 -185 561 0
-9 -186 562 0
-9 -187 563 0
-9 -188 564 0
-10 -185 562 0
-10 -186 563 0
-10 -187 564 0
-10 -188 561 0
-11 -185 563 0
-11 -186 564 0
-11 -187 561 0
-11 -188 562 0
-12 -185 564 0
-12 -186 561 0
-12 -187 562 0
-12 -188 563 0
-5 -281 565 0
-5 -282 566 0
-5 -283 567 0
-5 -284 568 0
-6 -281 566 0
-6 -282 567 0
-6 -283 568 0
-6 -284 565 0
-7 -281 567 0
-7 -282 568 0
-7 -283 565 0
-7 -284 566 0
-8 -281 568 0
-8 -282 565 0
-8 -283 566 0
-8 -284 567 0
-41 -49 569 0
-41 -50 570 0
-41 -51 571 0
-41 -52 572 0
-42 -49 570 0
-42 -50 571 0
-42 -51 572 0
-42 -52 569 0
-43 -49 571 0
-43 -50 572 0
-43 -51 569 0
-43 -52 570 0
-44 -49 572 0
-44 -50 569 0
-44 -51 570 0
-44 -52 571 0
-5 -285 573 0
-5 -286 574 0
-5 -287 575 0
-5 -288 576 0
-6 -285 574 0
-6 -286 575 0
-6 -287 576 0
-6 -288 573 0
-7 -285 575 0
-7 -286 576 0
-7 -287 573 0
-7 -288 574 0
-8 -285 576 0
-8 -286 573 0
-8 -287 574 0
-8 -288 575 0
-17 -113 577 0
-17 -114 578 0
-17 -115 579 0
-17 -116 580 0
-18 -113 578 0
-18 -114 579 0
-18 -115 580 0
-18 -116 577 0
-19 -113 579 0
-19 -114 580 0
-19 -115 577 0
-19 -116 578 0
-20 -113 580 0
-20 -114 577 0
-20 -115 578 0
-20 -116 579 0
-5 -289 581 0
-5 -290 582 0
-5 -291 583 0
-5 -292 584 0
-6 -289 582 0
-6 -290 583 0
-6 -291 584 0
-6 -292 581 0
-7 -289 583 0
-7 -290 584 0
-7 -291 581 0
-7 -292 582 0
-8 -289 584 0
-8 -290 581 0
-8 -291 582 0
-8 -292 583 0
-9 -193 585 0
-9 -194 586 0
-9 -195 587 0
-9 -196 588 0
-10 -193 586 0
-10 -194 587 0
-10 -195 588 0
-10 -196 585 0
-11 -193 587 0
-11 -194 588 0
-11 -195 585 0
-11 -196 586 0
-12 -193 588 0
-12 -194 585 0
-12 -195 586 0
-12 -196 587 0
-5 -293 589 0
-5 -294 590 0
-5 -295 591 0
-5 -296 592 0
-6 -293 590 0
-6 -294 591 0
-6 -295 592 0
-6 -296 589 0
-7 -293 591 0
-7 -294 592 0
-7 -295 589 0
-7 -296 590 0
-8 -293 592 0
-8 -294 589 0
-8 -295 590 0
-8 -296 591 0
593 594 595 596 0
-593 -594 0
-593 -595 0
-593 -596 0
-594 -595 0
-594 -596 0
-595 -596 0
-5 -297 597 0
-5 -298 598 0
-5 -299 599 0
-5 -300 600 0
-6 -297 598 0
-6 -298 599 0
-6 -299 600 0
-6 -300 597 0
-7 -297 599 0
-7 -298 600 0
-7 -299 597 0
-7 -300 598 0
-8 -297 600 0
-8 -298 597 0
-8 -299 598 0
-8 -300 599 0
601 602 603 604 0
-601 -602 0
-601 -603 0
-601 -604 0
-602 -603 0
-602 -604 0
-603 -604 0
-5 -301 605 0
-5 -302 606 0
-5 -303 607 0
-5 -304 608 0
-6 -301 606 0
-6 -302 607 0
-6 -303 608 0
-6 -304 605 0
-7 -301 607 0
-7 -302 608 0
-7 -303 605 0
-7 -304 606 0
-8 -301 608 0
-8 -302 605 0
-8 -303 606 0
-8 -304 607 0
-9 -201 609 0
-9 -202 610 0
-9 -203 611 0
-9 -204 612 0
-10 -201 610 0
-10 -202 611 0
-10 -203 612 0
-10 -204 609 0
-11 -201 611 0
-11 -202 612 0
-11 -203 609 0
-11 -204 610 0
-12 -201 612 0
-12 -202 609 0
-12 -203 610 0
-12 -204 611 0
-5 -305 613 0
-5 -306 614 0
-5 -307 615 0
-5 -308 616 0
-6 -305 614 0
-6 -306 615 0
-6 -307 616 0
-6 -308 613 0
-7 -305 615 0
-7 -306 616 0
-7 -307 613 0
-7 -308 614 0
-8 -305 616 0
-8 -306 613 0
-8 -307 614 0
-8 -308 615 0
-17 -121 617 0
-17 -122 618 0
-17 -123 619 0
-17 -124 620 0
-18 -121 618 0
-18 -122 619 0
-18 -123 620 0
-18 -124 617 0
-19 -121 619 0
-19 -122 620 0
-19 -123 617 0
-19 -124 618 0
-20 -121 620 0
-20 -122 617 0
-20 -123 618 0
-20 -124 619 0
-5 -309 621 0
-5 -310 622 0
-5 -311 623 0
-5 -312 624 0
-6 -309 622 0
-6 -310 623 0
-6 -311 624 0
-6 -312 621 0
-7 -309 623 0
-7 -310 624 0
-7 -311 621 0
-7 -312 622 0
-8 -309 624 0
-8 -310 621 0
-8 -311 622 0
-8 -312 623 0
625 626 627 628 0
-625 -626 0
-625 -627 0
-625 -628 0
-626 -627 0
-626 -628 0
-627 -628 0
-5 -313 629 0
-5 -314 630 0
-5 -315 631 0
-5 -316 632 0
-6 -313 630 0
-6 -314 631 0
-6 -315 632 0
-6 -316 629 0
-7 -313 631 0
-7 -314 632 0
-7 -315 629 0
-7 -316 630 0
-8 -313 632 0
-8 -314 629 0
-8 -315 630 0
-8 -316 631 0
-9 -209 633 0
-9 -210 634 0
-9 -211 635 0
-9 -212 636 0
-10 -209 634 0
-10 -210 635 0
-10 -211 636 0
-10 -212 633 0
-11 -209 635 0
-11 -210 636 0
-11 -211 633 0
-11 -212 634 0
-12 -209 636 0
-12 -210 633 0
-12 -211 634 0
-12 -212 635 0
-5 -317 637 0
-5 -318 638 0
-5 -319 639 0
-5 -320 640 0
-6 -317 638 0
-6 -318 639 0
-6 -319 640 0
-6 -320 637 0
-7 -317 639 0
-7 -318 640 0
-7 -319 637 0
-7 -320 638 0
-8 -317 640 0
-8 -318 637 0
-8 -319 638 0
-8 -320 639 0
-25 -89 641 0
-25 -90 642 0
-25 -91 643 0
-25 -92 644 0
-26 -89 642 0
-26 -90 643 0
-26 -91 644 0
-26 -92 641 0
-27 -89 643 0
-27 -90 644 0
-27 -91 641 0
-27 -92 642 0
-28 -89 644 0
-28 -90 641 0
-28 -91 642 0
-28 -92 643 0
-5 -321 645 0
-5 -322 646 0
-5 -323 647 0
-5 -324 648 0
-6 -321 646 0
-6 -322 647 0
-6 -323 648 0
-6 -324 645 0
-7 -321 647 0
-7 -322 648 0
-7 -323 645 0
-7 -324 646 0
-8 -321 648 0
-8 -322 645 0
-8 -323 646 0
-8 -324 647 0
649 650 651 652 0
-649 -650 0
-649 -651 0
-649 -652 0
-650 -651 0
-650 -652 0
-651 -652 0
-5 -325 653 0
-5 -326 654 0
-5 -327 655 0
-5 -328 656 0
-6 -325 654 0
-6 -326 655 0
-6 -327 656 0
-6 -328 653 0
-7 -325 655 0
-7 -326 656 0
-7 -327 653 0
-7 -328 654 0
-8 -325 656 0
-8 -326 653 0
-8 -327 654 0
-8 -328 655 0
-9 -217 657 0
-9 -218 658 0
-9 -219 659 0
-9 -220 660 0
-10 -217 658 0
-10 -218 659 0
-10 -219 660 0
-10 -220 657 0
-11 -217 659 0
-11 -218 660 0
-11 -219 657 0
-11 -220 658 0
-12 -217 660 0
-12 -218 657 0
-12 -219 658 0
-12 -220 659 0
-5 -329 661 0
-5 -330 662 0
-5 -331 663 0
-5 -332 664 0
-6 -329 662 0
-6 -330 663 0
-6 -331 664 0
-6 -332 661 0
-7 -329 663 0
-7 -330 664 0
-7 -331 661 0
-7 -332 662 0
-8 -329 664 0
-8 -330 661 0
-8 -331 662 0
-8 -332 663 0
665 666 667 668 0
-665 -666 0
-665 -667 0
-665 -668 0
-666 -667 0
-666 -668 0
-667 -668 0
-5 -333 669 0
-5 -334 670 0
-5 -335 671 0
-5 -336 672 0
-6 -333 670 0
-6 -334 671 0
-6 -335 672 0
-6 -336 669 0
-7 -333 671 0
-7 -334 672 0
-7 -335 669 0
-7 -336 670 0
-8 -333 672 0
-8 -334 669 0
-8 -335 670 0
-8 -336 671 0
-49 -49 673 0
-49 -50 674 0
-49 -51 675 0
-49 -52 676 0
-50 -49 674 0
-50 -50 675 0
-50 -51 676 0
-50 -52 673 0
-51 -49 675 0
-51 -50 676 0
-51 -51 673 0
-51 -52 674 0
-52 -49 676 0
-52 -50 673 0
-52 -51 674 0
-52 -52 675 0
-5 -337 677 0
-5 -338 678 0
-5 -339 679 0
-5 -340 680 0
-6 -337 678 0
-6 -338 679 0
-6 -339 680 0
-6 -340 677 0
-7 -337 679 0
-7 -338 680 0
-7 -339 677 0
-7 -340 678 0
-8 -337 680 0
-8 -338 677 0
-8 -339 678 0
-8 -340 679 0
-9 -225 681 0
-9 -226 682 0
-9 -227 683 0
-9 -228 684 0
-10 -225 682 0
-10 -226 683 0
-10 -227 684 0
-10 -228 681 0
-11 -225 683 0
-11 -226 684 0
-11 -227 681 0
-11 -228 682 0
-12 -225 684 0
-12 -226 681 0
-12 -227 682 0
-12 -228 683 0
-5 -341 685 0
-5 -342 686 0
-5 -343 687 0
-5 -344 688 0
-6 -341 686 0
-6 -342 687 0
-6 -343 688 0
-6 -344 685 0
-7 -341 687 0
-7 -342 688 0
-7 -343 685 0
-7 -344 686 0
-8 -341 688 0
-8 -342 685 0
-8 -343 686 0
-8 -344 687 0
689 690 691 692 0
-689 -690 0
-689 -691 0
-689 -692 0
-690 -691 0
-690 -692 0
-691 -692 0
-5 -345 693 0
-5 -346 694 0
-5 -347 695 0
-5 -348 696 0
-6 -345 694 0
-6 -346 695 0
-6 -347 696 0
-6 -348 693 0
-7 -345 695 0
-7 -346 696 0
-7 -347 693 0
-7 -348 694 0
-8 -345 696 0
-8 -346 693 0
-8 -347 694 0
-8 -348 695 0
-17 -137 697 0
-17 -138 698 0
-17 -139 699 0
-17 -140 700 0
-18 -137 698 0
-18 -138 699 0
-18 -139 700 0
-18 -140 697 0
-19 -137 699 0
-19 -138 700 0
-19 -139 697 0
-19 -140 698 0
-20 -137 700 0
-20 -138 697 0
-20 -139 698 0
-20 -140 699 0
-5 -349 701 0
-5 -350 702 0
-5 -351 703 0
-5 -352 704 0
-6 -349 702 0
-6 -350 703 0
-6 -351 704 0
-6 -352 701 0
-7 -349 703 0
-7 -350 704 0
-7 -351 701 0
-7 -352 702 0
-8 -349 704 0
-8 -350 701 0
-8 -351 702 0
-8 -352 703 0
-9 -233 705 0
-9 -234 706 0
-9 -235 707 0
-9 -236 708 0
-10 -233 706 0
-10 -234 707 0
-10 -235 708 0
-10 -236 705 0
-11 -233 707 0
-11 -234 708 0
-11 -235 705 0
-11 -236 706 0
-12 -233 708 0
-12 -234 705 0
-12 -235 706 0
-12 -236 707 0
-5 -353 709 0
-5 -354 710 0
-5 -355 711 0
-5 -356 712 0
-6 -353 710 0
-6 -354 711 0
-6 -355 712 0
-6 -356 709 0
-7 -353 711 0
-7 -354 712 0
-7 -355 709 0
-7 -356 710 0
-8 -353 712 0
-8 -354 709 0
-8 -355 710 0
-8 -356 711 0
713 714 715 716 0
-713 -714 0
-713 -715 0
-713 -716 0
-714 -715 0
-714 -716 0
-715 -716 0
-5 -357 717 0
-5 -358 718 0
-5 -359 719 0
-5 -360 720 0
-6 -357 718 0
-6 -358 719 0
-6 -359 720 0
-6 -360 717 0
-7 -357 719 0
-7 -358 720 0
-7 -359 717 0
-7 -360 718 0
-8 -357 720 0
-8 -358 717 0
-8 -359 718 0
-8 -360 719 0
721 722 723 724 0
-721 -722 0
-721 -723 0
-721 -724 0
-722 -723 0
-722 -724 0
-723 -724 0
-5 -361 725 0
-5 -362 726 0
-5 -363 727 0
-5 -364 728 0
-6 -361 726 0
-6 -362 727 0
-6 -363 728 0
-6 -364 725 0
-7 -361 727 0
-7 -362 728 0
-7 -363 725 0
-7 -364 726 0
-8 -361 728 0
-8 -362 725 0
-8 -363 726 0
-8 -364 727 0
-9 -241 729 0
-9 -242 730 0
-9 -243 731 0
-9 -244 732 0
-10 -241 730 0
-10 -242 731 0
-10 -243 732 0
-10 -244 729 0
-11 -241 731 0
-11 -242 732 0
-11 -243 729 0
-11 -244 730 0
-12 -241 732 0
-12 -242 729 0
-12 -243 730 0
-12 -244 731 0
-5 -365 733 0
-5 -366 734 0
-5 -367 735 0
-5 -368 736 0
-6 -365 734 0
-6 -366 735 0
-6 -367 736 0
-6 -368 733 0
-7 -365 735 0
-7 -366 736 0
-7 -367 733 0
-7 -368 734 0
-8 -365 736 0
-8 -366 733 0
-8 -367 734 0
-8 -368 735 0
-17 -145 737 0
-17 -146 738 0
-17 -147 739 0
-17 -148 740 0
-18 -145 738 0
-18 -146 739 0
-18 -147 740 0
-18 -148 737 0
-19 -145 739 0
-19 -146 740 0
-19 -147 737 0
-19 -148 738 0
-20 -145 740 0
-20 -146 737 0
-20 -147 738 0
-20 -148 739 0
-5 -369 741 0
-5 -370 742 0
-5 -371 743 0
-5 -372 744 0
-6 -369 742 0
-6 -370 743 0
-6 -371 744 0
-6 -372 741 0
-7 -369 743 0
-7 -370 744 0
-7 -371 741 0
-7 -372 742 0
-8 -369 744 0
-8 -370 741 0
-8 -371 742 0
-8 -372 743 0
-41 -65 745 0
-41 -66 746 0
-41 -67 747 0
-41 -68 748 0
-42 -65 746 0
-42 -66 747 0
-42 -67 748 0
-42 -68 745 0
-43 -65 747 0
-43 -66 748 0
-43 -67 745 0
-43 -68 746 0
-44 -65 748 0
-44 -66 745 0
-44 -67 746 0
-44 -68 747 0
-5 -373 749 0
-5 -374 750 0
-5 -375 751 0
-5 -376 752 0
-6 -373 750 0
-6 -374 751 0
-6 -375 752 0
-6 -376 749 0
-7 -373 751 0
-7 -374 752 0
-7 -375 749 0
-7 -376 750 0
-8 -373 752 0
-8 -374 749 0
-8 -375 750 0
-8 -376 751 0
-9 -249 753 0
-9 -250 754 0
-9 -251 755 0
-9 -252 756 0
-10 -249 754 0
-10 -250 755 0
-10 -251 756 0
-10 -252 753 0
-11 -249 755 0
-11 -250 756 0
-11 -251 753 0
-11 -252 754 0
-12 -249 756 0
-12 -250 753 0
-12 -251 754 0
-12 -252 755 0
-5 -377 757 0
-5 -378 758 0
-5 -379 759 0
-5 -380 760 0
-6 -377 758 0
-6 -378 759 0
-6 -379 760 0
-6 -380 757 0
-7 -377 759 0
-7 -378 760 0
-7 -379 757 0
-7 -380 758 0
-8 -377 760 0
-8 -378 757 0
-8 -379 758 0
-8 -380 759 0
761 762 763 764 0
-761 -762 0
-761 -763 0
-761 -764 0
-762 -763 0
-762 -764 0
-763 -764 0
-5 -381 765 0
-5 -382 766 0
-5 -383 767 0
-5 -384 768 0
-6 -381 766 0
-6 -382 767 0
-6 -383 768 0
-6 -384 765 0
-7 -381 767 0
-7 -382 768 0
-7 -383 765 0
-7 -384 766 0
-8 -381 768 0
-8 -382 765 0
-8 -383 766 0
-8 -384 767 0
769 770 771 772 0
-769 -770 0
-769 -771 0
-769 -772 0
-770 -771 0
-770 -772 0
-771 -772 0
-5 -385 773 0
-5 -386 774 0
-5 -387 775 0
-5 -388 776 0
-6 -385 774 0
-6 -386 775 0
-6 -387 776 0
-6 -388 773 0
-7 -385 775 0
-7 -386 776 0
-7 -387 773 0
-7 -388 774 0
-8 -385 776 0
-8 -386 773 0
-8 -387 774 0
-8 -388 775 0
-9 -257 777 0
-9 -258 778 0
-9 -259 779 0
-9 -260 780 0
-10 -257 778 0
-10 -258 779 0
-10 -259 780 0
-10 -260 777 0
-11 -257 779 0
-11 -258 780 0
-11 -259 777 0
-11 -260 778 0
-12 -257 780 0
-12 -258 777 0
-12 -259 778 0
-12 -260 779 0
-5 -389 781 0
-5 -390 782 0
-5 -391 783 0
-5 -392 784 0
-6 -389 782 0
-6 -390 783 0
-6 -391 784 0
-6 -392 781 0
-7 -389 783 0
-7 -390 784 0
-7 -391 781 0
-7 -392 782 0
-8 -389 784 0
-8 -390 781 0
-8 -391 782 0
-8 -392 783 0
785 786 787 788 0
-785 -786 0
-785 -787 0
-785 -788 0
-786 -787 0
-786 -788 0
-787 -788 0
-5 -393 789 0
-5 -394 790 0
-5 -395 791 0
-5 -396 792 0
-6 -393 790 0
-6 -394 791 0
-6 -395 792 0
-6 -396 789 0
-7 -393 791 0
-7 -394 792 0
-7 -395 789 0
-7 -396 790 0
-8 -393 792 0
-8 -394 789 0
-8 -395 790 0
-8 -396 791 0
793 794 795 796 0
-793 -794 0
-793 -795 0
-793 -796 0
-794 -795 0
-794 -796 0
-795 -796 0
-5 -397 797 0
-5 -398 798 0
-5 -399 799 0
-5 -400 800 0
-6 -397 798 0
-6 -398 799 0
-6 -399 800 0
-6 -400 797 0
-7 -397 799 0
-7 -398 800 0
-7 -399 797 0
-7 -400 798 0
-8 -397 800 0
-8 -398 797 0
-8 -399 798 0
-8 -400 799 0
-9 -265 801 0
-9 -266 802 0
-9 -267 803 0
-9 -268 804 0
-10 -265 802 0
-10 -266 803 0
-10 -267 804 0
-10 -268 801 0
-11 -265 803 0
-11 -266 804 0
-11 -267 801 0
-11 -268 802 0
-12 -265 804 0
-12 -266 801 0
-12 -267 802 0
-12 -268 803 0
-5 -401 805 0
-5 -402 806 0
-5 -403 807 0
-5 -404 808 0
-6 -401 806 0
-6 -402 807 0
-6 -403 808 0
-6 -404 805 0
-7 -401 807 0
-7 -402 808 0
-7 -403 805 0
-7 -404 806 0
-8 -401 808 0
-8 -402 805 0
-8 -403 806 0
-8 -404 807 0
-25 -113 809 0
-25 -114 810 0
-25 -115 811 0
-25 -116 812 0
-26 -113 810 0
-26 -114 811 0
-26 -115 812 0
-26 -116 809 0
-27 -113 811 0
-27 -114 812 0
-27 -115 809 0
-27 -116 810 0
-28 -113 812 0
-28 -114 809 0
-28 -115 810 0
-28 -116 811 0
-5 -405 813 0
-5 -406 814 0
-5 -407 815 0
-5 -408 816 0
-6 -405 814 0
-6 -406 815 0
-6 -407 816 0
-6 -408 813 0
-7 -405 815 0
-7 -406 816 0
-7 -407 813 0
-7 -408 814 0
-8 -405 816 0
-8 -406 813 0
-8 -407 814 0
-8 -408 815 0
-17 -161 817 0
-17 -162 818 0
-17 -163 819 0
-17 -164 820 0
-18 -161 818 0
-18 -162 819 0
-18 -163 820 0
-18 -164 817 0
-19 -161 819 0
-19 -162 820 0
-19 -163 817 0
-19 -164 818 0
-20 -161 820 0
-20 -162 817 0
-20 -163 818 0
-20 -164 819 0
-5 -409 821 0
-5 -410 822 0
-5 -411 823 0
-5 -412 824 0
-6 -409 822 0
-6 -410 823 0
-6 -411 824 0
-6 -412 821 0
-7 -409 823 0
-7 -410 824 0
-7 -411 821 0
-7 -412 822 0
-8 -409 824 0
-8 -410 821 0
-8 -411 822 0
-8 -412 823 0
-9 -273 825 0
-9 -274 826 0
-9 -275 827 0
-9 -276 828 0
-10 -273 826 0
-10 -274 827 0
-10 -275 828 0
-10 -276 825 0
-11 -273 827 0
-11 -274 828 0
-11 -275 825 0
-11 -276 826 0
-12 -273 828 0
-12 -274 825 0
-12 -275 826 0
-12 -276 827 0
-5 -413 829 0
-5 -414 830 0
-5 -415 831 0
-5 -416 832 0
-6 -413 830 0
-6 -414 831 0
-6 -415 832 0
-6 -416 829 0
-7 -413 831 0
-7 -414 832 0
-7 -415 829 0
-7 -416 830 0
-8 -413 832 0
-8 -414 829 0
-8 -415 830 0
-8 -416 831 0
-41 -73 833 0
-41 -74 834 0
-41 -75 835 0
-41 -76 836 0
-42 -73 834 0
-42 -74 835 0
-42 -75 836 0
-42 -76 833 0
-43 -73 835 0
-43 -74 836 0
-43 -75 833 0
-43 -76 834 0
-44 -73 836 0
-44 -74 833 0
-44 -75 834 0
-44 -76 835 0
-5 -417 837 0
-5 -418 838 0
-5 -419 839 0
-5 -420 840 0
-6 -417 838 0
-6 -418 839 0
-6 -419 840 0
-6 -420 837 0
-7 -417 839 0
-7 -418 840 0
-7 -419 837 0
-7 -420 838 0
-8 -417 840 0
-8 -418 837 0
-8 -419 838 0
-8 -420 839 0
841 842 843 844 0
-841 -842 0
-841 -843 0
-841 -844 0
-842 -843 0
-842 -844 0
-843 -844 0
-5 -421 845 0
-5 -422 846 0
-5 -423 847 0
-5 -424 848 0
-6 -421 846 0
-6 -422 847 0
-6 -423 848 0
-6 -424 845 0
-7 -421 847 0
-7 -422 848 0
-7 -423 845 0
-7 -424 846 0
-8 -421 848 0
-8 -422 845 0
-8 -423 846 0
-8 -424 847 0
-9 -281 849 0
-9 -282 850 0
-9 -283 851 0
-9 -284 852 0
-10 -281 850 0
-10 -282 851 0
-10 -283 852 0
-10 -284 849 0
-11 -281 851 0
-11 -282 852 0
-11 -283 849 0
-11 -284 850 0
-12 -281 852 0
-12 -282 849 0
-12 -283 850 0
-12 -284 851 0
-5 -425 853 0
-5 -426 854 0
-5 -427 855 0
-5 -428 856 0
-6 -425 854 0
-6 -426 855 0
-6 -427 856 0
-6 -428 853 0
-7 -425 855 0
-7 -426 856 0
-7 -427 853 0
-7 -428 854 0
-8 -425 856 0
-8 -426 853 0
-8 -427 854 0
-8 -428 855 0
-17 -169 857 0
-17 -170 858 0
-17 -171 859 0
-17 -172 860 0
-18 -169 858 0
-18 -170 859 0
-18 -171 860 0
-18 -172 857 0
-19 -169 859 0
-19 -170 860 0
-19 -171 857 0
-19 -172 858 0
-20 -169 860 0
-20 -170 857 0
-20 -171 858 0
-20 -172 859 0
-5 -429 861 0
-5 -430 862 0
-5 -431 863 0
-5 -432 864 0
-6 -429 862 0
-6 -430 863 0
-6 -431 864 0
-6 -432 861 0
-7 -429 863 0
-7 -430 864 0
-7 -431 861 0
-7 -432 862 0
-8 -429 864 0
-8 -430 861 0
-8 -431 862 0
-8 -432 863 0
-25 -121 865 0
-25 -122 866 0
-25 -123 867 0
-25 -124 868 0
-26 -121 866 0
-26 -122 867 0
-26 -123 868 0
-26 -124 865 0
-27 -121 867 0
-27 -122 868 0
-27 -123 865 0
-27 -124 866 0
-28 -121 868 0
-28 -122 865 0
-28 -123 866 0
-28 -124 867 0
-5 -433 869 0
-5 -434 870 0
-5 -435 871 0
-5 -436 872 0
-6 -433 870 0
-6 -434 871 0
-6 -435 872 0
-6 -436 869 0
-7 -433 871 0
-7 -434 872 0
-7 -435 869 0
-7 -436 870 0
-8 -433 872 0
-8 -434 869 0
-8 -435 870 0
-8 -436 871 0
-9 -289 873 0
-9 -290 874 0
-9 -291 875 0
-9 -292 876 0
-10 -289 874 0
-10 -290 875 0
-10 -291 876 0
-10 -292 873 0
-11 -289 875 0
-11 -290 876 0
-11 -291 873 0
-11 -292 874 0
-12 -289 876 0
-12 -290 873 0
-12 -291 874 0
-12 -292 875 0
-5 -437 877 0
-5 -438 878 0
-5 -439 879 0
-5 -440 880 0
-6 -437 878 0
-6 -438 879 0
-6 -439 880 0
-6 -440 877 0
-7 -437 879 0
-7 -438 880 0
-7 -439 877 0
-7 -440 878 0
-8 -437 880 0
-8 -438 877 0
-8 -439 878 0
-8 -440 879 0
-49 -65 881 0
-49 -66 882 0
-49 -67 883 0
-49 -68 884 0
-50 -65 882 0
-50 -66 883 0
-50 -67 884 0
-50 -68 881 0
-51 -65 883 0
-51 -66 884 0
-51 -67 881 0
-51 -68 882 0
-52 -65 884 0
-52 -66 881 0
-52 -67 882 0
-52 -68 883 0
-5 -441 885 0
-5 -442 886 0
-5 -443 887 0
-5 -444 888 0
-6 -441 886 0
-6 -442 887 0
-6 -443 888 0
-6 -444 885 0
-7 -441 887 0
-7 -442 888 0
-7 -443 885 0
-7 -444 886 0
-8 -441 888 0
-8 -442 885 0
-8 -443 886 0
-8 -444 887 0
889 890 891 892 0
-889 -890 0
-889 -891 0
-889 -892 0
-890 -891 0
-890 -892 0
-891 -892 0
-5 -445 893 0
-5 -446 894 0
-5 -447 895 0
-5 -448 896 0
-6 -445 894 0
-6 -446 895 0
-6 -447 896 0
-6 -448 893 0
-7 -445 895 0
-7 -446 896 0
-7 -447 893 0
-7 -448 894 0
-8 -445 896 0
-8 -446 893 0
-8 -447 894 0
-8 -448 895 0
-9 -297 897 0
-9 -298 898 0
-9 -299 899 0
-9 -300 900 0
-10 -297 898 0
-10 -298 899 0
-10 -299 900 0
-10 -300 897 0
-11 -297 899 0
-11 -298 900 0
-11 -299 897 0
-11 -300 898 0
-12 -297 900 0
-12 -298 897 0
-12 -299 898 0
-12 -300 899 0
-5 -449 901 0
-5 -450 902 0
-5 -451 903 0
-5 -452 904 0
-6 -449 902 0
-6 -450 903 0
-6 -451 904 0
-6 -452 901 0
-7 -449 903 0
-7 -450 904 0
-7 -451 901 0
-7 -452 902 0
-8 -449 904 0
-8 -450 901 0
-8 -451 902 0
-8 -452 903 0
905 906 907 908 0
-905 -906 0
-905 -907 0
-905 -908 0
-906 -907 0
-906 -908 0
-907 -908 0
-5 -453 909 0
-5 -454 910 0
-5 -455 911 0
-5 -456 912 0
-6 -453 910 0
-6 -454 911 0
-6 -455 912 0
-6 -456 909 0
-7 -453 911 0
-7 -454 912 0
-7 -455 909 0
-7 -456 910 0
-8 -453 912 0
-8 -454 909 0
-8 -455 910 0
-8 -456 911 0
913 914 915 916 0
-913 -914 0
-913 -915 0
-913 -916 0
-914 -915 0
-914 -916 0
-915 -916 0
-5 -457 917 0
-5 -458 918 0
-5 -459 919 0
-5 -460 920 0
-6 -457 918 0
-6 -458 919 0
-6 -459 920 0
-6 -460 917 0
-7 -457 919 0
-7 -458 920 0
-7 -459 917 0
-7 -460 918 0
-8 -457 920 0
-8 -458 917 0
-8 -459 918 0
-8 -460 919 0
-9 -305 921 0
-9 -306 922 0
-9 -307 923 0
-9 -308 924 0
-10 -305 922 0
-10 -306 923 0
-10 -307 924 0
-10 -308 921 0
-11 -305 923 0
-11 -306 924 0
-11 -307 921 0
-11 -308 922 0
-12 -305 924 0
-12 -306 921 0
-12 -307 922 0
-12 -308 923 0
-5 -461 925 0
-5 -462 926 0
-5 -463 927 0
-5 -464 928 0
-6 -461 926 0
-6 -462 927 0
-6 -463 928 0
-6 -464 925 0
-7 -461 927 0
-7 -462 928 0
-7 -463 925 0
-7 -464 926 0
-8 -461 928 0
-8 -462 925 0
-8 -463 926 0
-8 -464 927 0
929 930 931 932 0
-929 -930 0
-929 -931 0
-929 -932 0
-930 -931 0
-930 -932 0
-931 -932 0
-5 -465 933 0
-5 -466 934 0
-5 -467 935 0
-5 -468 936 0
-6 -465 934 0
-6 -466 935 0
-6 -467 936 0
-6 -468 933 0
-7 -465 935 0
-7 -466 936 0
-7 -467 933 0
-7 -468 934 0
-8 -465 936 0
-8 -466 933 0
-8 -467 934 0
-8 -468 935 0
-17 -185 937 0
-17 -186 938 0
-17 -187 939 0
-17 -188 940 0
-18 -185 938 0
-18 -186 939 0
-18 -187 940 0
-18 -188 937 0
-19 -185 939 0
-19 -186 940 0
-19 -187 937 0
-19 -188 938 0
-20 -185 940 0
-20 -186 937 0
-20 -187 938 0
-20 -188 939 0
-5 -469 941 0
-5 -470 942 0
-5 -471 943 0
-5 -472 944 0
-6 -469 942 0
-6 -470 943 0
-6 -471 944 0
-6 -472 941 0
-7 -469 943 0
-7 -470 944 0
-7 -471 941 0
-7 -472 942 0
-8 -469 944 0
-8 -470 941 0
-8 -471 942 0
-8 -472 943 0
-9 -313 945 0
-9 -314 946 0
-9 -315 947 0
-9 -316 948 0
-10 -313 946 0
-10 -314 947 0
-10 -315 948 0
-10 -316 945 0
-11 -313 947 0
-11 -314 948 0
-11 -315 945 0
-11 -316 946 0
-12 -313 948 0
-12 -314 945 0
-12 -315 946 0
-12 -316 947 0
-5 -473 949 0
-5 -474 950 0
-5 -475 951 0
-5 -476 952 0
-6 -473 950 0
-6 -474 951 0
-6 -475 952 0
-6 -476 949 0
-7 -473 951 0
-7 -474 952 0
-7 -475 949 0
-7 -476 950 0
-8 -473 952 0
-8 -474 949 0
-8 -475 950 0
-8 -476 951 0
953 954 955 956 0
-953 -954 0
-953 -955 0
-953 -956 0
-954 -955 0
-954 -956 0
-955 -956 0
-5 -477 957 0
-5 -478 958 0
-5 -479 959 0
-5 -480 960 0
-6 -477 958 0
-6 -478 959 0
-6 -479 960 0
-6 -480 957 0
-7 -477 959 0
-7 -478 960 0
-7 -479 957 0
-7 -480 958 0
-8 -477 960 0
-8 -478 957 0
-8 -479 958 0
-8 -480 959 0
961 962 963 964 0
-961 -962 0
-961 -963 0
-961 -964 0
-962 -963 0
-962 -964 0
-963 -964 0
-5 -481 965 0
-5 -482 966 0
-5 -483 967 0
-5 -484 968 0
-6 -481 966 0
-6 -482 967 0
-6 -483 968 0
-6 -484 965 0
-7 -481 967 0
-7 -482 968 0
-7 -483 965 0
-7 -484 966 0
-8 -481 968 0
-8 -482 965 0
-8 -483 966 0
-8 -484 967 0
-9 -321 969 0
-9 -322 970 0
-9 -323 971 0
-9 -324 972 0
-10 -321 970 0
-10 -322 971 0
-10 -323 972 0
-10 -324 969 0
-11 -321 971 0
-11 -322 972 0
-11 -323 969 0
-11 -324 970 0
-12 -321 972 0
-12 -322 969 0
-12 -323 970 0
-12 -324 971 0
-5 -485 973 0
-5 -486 974 0
-5 -487 975 0
-5 -488 976 0
-6 -485 974 0
-6 -486 975 0
-6 -487 976 0
-6 -488 973 0
-7 -485 975 0
-7 -486 976 0
-7 -487 973 0
-7 -488 974 0
-8 -485 976 0
-8 -486 973 0
-8 -487 974 0
-8 -488 975 0
-17 -193 977 0
-17 -194 978 0
-17 -195 979 0
-17 -196 980 0
-18 -193 978 0
-18 -194 979 0
-18 -195 980 0
-18 -196 977 0
-19 -193 979 0
-19 -194 980 0
-19 -195 977 0
-19 -196 978 0
-20 -193 980 0
-20 -194 977 0
-20 -195 978 0
-20 -196 979 0
-5 -489 981 0
-5 -490 982 0
-5 -491 983 0
-5 -492 984 0
-6 -489 982 0
-6 -490 983 0
-6 -491 984 0
-6 -492 981 0
-7 -489 983 0
-7 -490 984 0
-7 -491 981 0
-7 -492 982 0
-8 -489 984 0
-8 -490 981 0
-8 -491 982 0
-8 -492 983 0
-49 -73 985 0
-49 -74 986 0
-49 -75 987 0
-49 -76 988 0
-50 -73 986 0
-50 -74 987 0
-50 -75 988 0
-50 -76 985 0
-51 -73 987 0
-51 -74 988 0
-51 -75 985 0
-51 -76 986 0
-52 -73 988 0
-52 -74 985 0
-52 -75 986 0
-52 -76 987 0
-5 -493 989 0
-5 -494 990 0
-5 -495 991 0
-5 -496 992 0
-6 -493 990 0
-6 -494 991 0
-6 -495 992 0
-6 -496 989 0
-7 -493 991 0
-7 -494 992 0
-7 -495 989 0
-7 -496 990 0
-8 -493 992 0
-8 -494 989 0
-8 -495 990 0
-8 -496 991 0
-9 -329 993 0
-9 -330 994 0
-9 -331 995 0
-9 -332 996 0
-10 -329 994 0
-10 -330 995 0
-10 -331 996 0
-10 -332 993 0
-11 -329 995 0
-11 -330 996 0
-11 -331 993 0
-11 -332 994 0
-12 -329 996 0
-12 -330 993 0
-12 -331 994 0
-12 -332 995 0
-5 -497 997 0
-5 -498 998 0
-5 -499 999 0
-5 -500 1000 0
-6 -497 998 0
-6 -498 999 0
-6 -499 1000 0
-6 -500 997 0
-7 -497 999 0
-7 -498 1000 0
-7 -499 997 0
-7 -500 998 0
-8 -497 1000 0
-8 -498 997 0
-8 -499 998 0
-8 -500 999 0
1001 1002 1003 1004 0
-1001 -1002 0
-1001 -1003 0
-1001 -1004 0
-1002 -1003 0
-1002 -1004 0
-1003 -1004 0
-5 -501 1005 0
-5 -502 1006 0
-5 -503 1007 0
-5 -504 1008 0
-6 -501 1006 0
-6 -502 1007 0
-6 -503 1008 0
-6 -504 1005 0
-7 -501 1007 0
-7 -502 1008 0
-7 -503 1005 0
-7 -504 1006 0
-8 -501 1008 0
-8 -502 1005 0
-8 -503 1006 0
-8 -504 1007 0
-41 -89 1009 0
-41 -90 1010 0
-41 -91 1011 0
-41 -92 1012 0
-42 -89 1010 0
-42 -90 1011 0
-42 -91 1012 0
-42 -92 1009 0
-43 -89 1011 0
-43 -90 1012 0
-43 -91 1009 0
-43 -92 1010 0
-44 -89 1012 0
-44 -90 1009 0
-44 -91 1010 0
-44 -92 1011 0
-5 -505 1013 0
-5 -506 1014 0
-5 -507 1015 0
-5 -508 1016 0
-6 -505 1014 0
-6 -506 1015 0
-6 -507 1016 0
-6 -508 1013 0
-7 -505 1015 0
-7 -506 1016 0
-7 -507 1013 0
-7 -508 1014 0
-8 -505 1016 0
-8 -506 1013 0
-8 -507 1014 0
-8 -508 1015 0
-9 -337 1017 0
-9 -338 1018 0
-9 -339 1019 0
-9 -340 1020 0
-10 -337 1018 0
-10 -338 1019 0
-10 -339 1020 0
-10 -340 1017 0
-11 -337 1019 0
-11 -338 1020 0
-11 -339 1017 0
-11 -340 1018 0
-12 -337 1020 0
-12 -338 1017 0
-12 -339 1018 0
-12 -340 1019 0
-5 -509 1021 0
-5 -510 1022 0
-5 -511 1023 0
-5 -512 1024 0
-6 -509 1022 0
-6 -510 1023 0
-6 -511 1024 0
-6 -512 1021 0
-7 -509 1023 0
-7 -510 1024 0
-7 -511 1021 0
-7 -512 1022 0
-8 -509 1024 0
-8 -510 1021 0
-8 -511 1022 0
-8 -512 1023 0
1025 1026 1027 1028 0
-1025 -1026 0
-1025 -1027 0
-1025 -1028 0
-1026 -1027 0
-1026 -1028 0
-1027 -1028 0
-5 -513 1029 0
-5 -514 1030 0
-5 -515 1031 0
-5 -516 1032 0
-6 -513 1030 0
-6 -514 1031 0
-6 -515 1032 0
-6 -516 1029 0
-7 -513 1031 0
-7 -514 1032 0
-7 -515 1029 0
-7 -516 1030 0
-8 -513 1032 0
-8 -514 1029 0
-8 -515 1030 0
-8 -516 1031 0
-25 -145 1033 0
-25 -146 1034 0
-25 -147 1035 0
-25 -148 1036 0
-26 -145 1034 0
-26 -146 1035 0
-26 -147 1036 0
-26 -148 1033 0
-27 -145 1035 0
-27 -146 1036 0
-27 -147 1033 0
-27 -148 1034 0
-28 -145 1036 0
-28 -146 1033 0
-28 -147 1034 0
-28 -148 1035 0
-5 -517 1037 0
-5 -518 1038 0
-5 -519 1039 0
-5 -520 1040 0
-6 -517 1038 0
-6 -518 1039 0
-6 -519 1040 0
-6 -520 1037 0
-7 -517 1039 0
-7 -518 1040 0
-7 -519 1037 0
-7 -520 1038 0
-8 -517 1040 0
-8 -518 1037 0
-8 -519 1038 0
-8 -520 1039 0
-9 -345 1041 0
-9 -346 1042 0
-9 -347 1043 0
-9 -348 1044 0
-10 -345 1042 0
-10 -346 1043 0
-10 -347 1044 0
-10 -348 1041 0
-11 -345 1043 0
-11 -346 1044 0
-11 -347 1041 0
-11 -348 1042 0
-12 -345 1044 0
-12 -346 1041 0
-12 -347 1042 0
-12 -348 1043 0
-5 -521 1045 0
-5 -522 1046 0
-5 -523 1047 0
-5 -524 1048 0
-6 -521 1046 0
-6 -522 1047 0
-6 -523 1048 0
-6 -524 1045 0
-7 -521 1047 0
-7 -522 1048 0
-7 -523 1045 0
-7 -524 1046 0
-8 -521 1048 0
-8 -522 1045 0
-8 -523 1046 0
-8 -524 1047 0
1049 1050 1051 1052 0
-1049 -1050 0
-1049 -1051 0
-1049 -1052 0
-1050 -1051 0
-1050 -1052 0
-1051 -1052 0
-5 -525 1053 0
-5 -526 1054 0
-5 -527 1055 0
-5 -528 1056 0
-6 -525 1054 0
-6 -526 1055 0
-6 -527 1056 0
-6 -528 1053 0
-7 -525 1055 0
-7 -526 1056 0
-7 -527 1053 0
-7 -528 1054 0
-8 -525 1056 0
-8 -526 1053 0
-8 -527 1054 0
-8 -528 1055 0
-17 -209 1057 0
-17 -210 1058 0
-17 -211 1059 0
-17 -212 1060 0
-18 -209 1058 0
-18 -210 1059 0
-18 -211 1060 0
-18 -212 1057 0
-19 -209 1059 0
-19 -210 1060 0
-19 -211 1057 0
-19 -212 1058 0
-20 -209 1060 0
-20 -210 1057 0
-20 -211 1058 0
-20 -212 1059 0
-5 -529 1061 0
-5 -530 1062 0
-5 -531 1063 0
-5 -532 1064 0
-6 -529 1062 0
-6 -530 1063 0
-6 -531 1064 0
-6 -532 1061 0
-7 -529 1063 0
-7 -530 1064 0
-7 -531 1061 0
-7 -532 1062 0
-8 -529 1064 0
-8 -530 1061 0
-8 -531 1062 0
-8 -532 1063 0
-9 -353 1065 0
-9 -354 1066 0
-9 -355 1067 0
-9 -356 1068 0
-10 -353 1066 0
-10 -354 1067 0
-10 -355 1068 0
-10 -356 1065 0
-11 -353 1067 0
-11 -354 1068 0
-11 -355 1065 0
-11 -356 1066 0
-12 -353 1068 0
-12 -354 1065 0
-12 -355 1066 0
-12 -356 1067 0
-5 -533 1069 0
-5 -534 1070 0
-5 -535 1071 0
-5 -536 1072 0
-6 -533 1070 0
-6 -534 1071 0
-6 -535 1072 0
-6 -536 1069 0
-7 -533 1071 0
-7 -534 1072 0
-7 -535 1069 0
-7 -536 1070 0
-8 -533 1072 0
-8 -534 1069 0
-8 -535 1070 0
-8 -536 1071 0
1073 1074 1075 1076 0
-1073 -1074 0
-1073 -1075 0
-1073 -1076 0
-1074 -1075 0
-1074 -1076 0
-1075 -1076 0
-5 -537 1077 0
-5 -538 1078 0
-5 -539 1079 0
-5 -540 1080 0
-6 -537 1078 0
-6 -538 1079 0
-6 -539 1080 0
-6 -540 1077 0
-7 -537 1079 0
-7 -538 1080 0
-7 -539 1077 0
-7 -540 1078 0
-8 -537 1080 0
-8 -538 1077 0
-8 -539 1078 0
-8 -540 1079 0
1081 1082 1083 1084 0
-1081 -1082 0
-1081 -1083 0
-1081 -1084 0
-1082 -1083 0
-1082 -1084 0
-1083 -1084 0
-5 -541 1085 0
-5 -542 1086 0
-5 -543 1087 0
-5 -544 1088 0
-6 -541 1086 0
-6 -542 1087 0
-6 -543 1088 0
-6 -544 1085 0
-7 -541 1087 0
-7 -542 1088 0
-7 -543 1085 0
-7 -544 1086 0
-8 -541 1088 0
-8 -542 1085 0
-8 -543 1086 0
-8 -544 1087 0
-9 -361 1089 0
-9 -362 1090 0
-9 -363 1091 0
-9 -364 1092 0
-10 -361 1090 0
-10 -362 1091 0
-10 -363 1092 0
-10 -364 1089 0
-11 -361 1091 0
-11 -362 1092 0
-11 -363 1089 0
-11 -364 1090 0
-12 -361 1092 0
-12 -362 1089 0
-12 -363 1090 0
-12 -364 1091 0
-5 -545 1093 0
-5 -546 1094 0
-5 -547 1095 0
-5 -548 1096 0
-6 -545 1094 0
-6 -546 1095 0
-6 -547 1096 0
-6 -548 1093 0
-7 -545 1095 0
-7 -546 1096 0
-7 -547 1093 0
-7 -548 1094 0
-8 -545 1096 0
-8 -546 1093 0
-8 -547 1094 0
-8 -548 1095 0
-17 -217 1097 0
-17 -218 1098 0
-17 -219 1099 0
-17 -220 1100 0
-18 -217 1098 0
-18 -218 1099 0
-18 -219 1100 0
-18 -220 1097 0
-19 -217 1099 0
-19 -218 1100 0
-19 -219 1097 0
-19 -220 1098 0
-20 -217 1100 0
-20 -218 1097 0
-20 -219 1098 0
-20 -220 1099 0
-5 -549 1101 0
-5 -550 1102 0
-5 -551 1103 0
-5 -552 1104 0
-6 -549 1102 0
-6 -550 1103 0
-6 -551 1104 0
-6 -552 1101 0
-7 -549 1103 0
-7 -550 1104 0
-7 -551 1101 0
-7 -552 1102 0
-8 -549 1104 0
-8 -550 1101 0
-8 -551 1102 0
-8 -552 1103 0
1105 1106 1107 1108 0
-1105 -1106 0
-1105 -1107 0
-1105 -1108 0
-1106 -1107 0
-1106 -1108 0
-1107 -1108 0
-5 -553 1109 0
-5 -554 1110 0
-5 -555 1111 0
-5 -556 1112 0
-6 -553 1110 0
-6 -554 1111 0
-6 -555 1112 0
-6 -556 1109 0
-7 -553 1111 0
-7 -554 1112 0
-7 -555 1109 0
-7 -556 1110 0
-8 -553 1112 0
-8 -554 1109 0
-8 -555 1110 0
-8 -556 1111 0
-9 -369 1113 0
-9 -370 1114 0
-9 -371 1115 0
-9 -372 1116 0
-10 -369 1114 0
-10 -370 1115 0
-10 -371 1116 0
-10 -372 1113 0
-11 -369 1115 0
-11 -370 1116 0
-11 -371 1113 0
-11 -372 1114 0
-12 -369 1116 0
-12 -370 1113 0
-12 -371 1114 0
-12 -372 1115 0
-5 -557 1117 0
-5 -558 1118 0
-5 -559 1119 0
-5 -560 1120 0
-6 -557 1118 0
-6 -558 1119 0
-6 -559 1120 0
-6 -560 1117 0
-7 -557 1119 0
-7 -558 1120 0
-7 -559 1117 0
-7 -560 1118 0
-8 -557 1120 0
-8 -558 1117 0
-8 -559 1118 0
-8 -560 1119 0
1121 1122 1123 1124 0
-1121 -1122 0
-1121 -1123 0
-1121 -1124 0
-1122 -1123 0
-1122 -1124 0
-1123 -1124 0
-5 -561 1125 0
-5 -562 1126 0
-5 -563 1127 0
-5 -564 1128 0
-6 -561 1126 0
-6 -562 1127 0
-6 -563 1128 0
-6 -564 1125 0
-7 -561 1127 0
-7 -562 1128 0
-7 -563 1125 0
-7 -564 1126 0
-8 -561 1128 0
-8 -562 1125 0
-8 -563 1126 0
-8 -564 1127 0
1129 1130 1131 1132 0
-1129 -1130 0
-1129 -1131 0
-1129 -1132 0
-1130 -1131 0
-1130 -1132 0
-1131 -1132 0
-5 -565 1133 0
-5 -566 1134 0
-5 -567 1135 0
-5 -568 1136 0
-6 -565 1134 0
-6 -566 1135 0
-6 -567 1136 0
-6 -568 1133 0
-7 -565 1135 0
-7 -566 1136 0
-7 -567 1133 0
-7 -568 1134 0
-8 -565 1136 0
-8 -566 1133 0
-8 -567 1134 0
-8 -568 1135 0
-9 -377 1137 0
-9 -378 1138 0
-9 -379 1139 0
-9 -380 1140 0
-10 -377 1138 0
-10 -378 1139 0
-10 -379 1140 0
-10 -380 1137 0
-11 -377 1139 0
-11 -378 1140 0
-11 -379 1137 0
-11 -380 1138 0
-12 -377 1140 0
-12 -378 1137 0
-12 -379 1138 0
-12 -380 1139 0
-5 -569 1141 0
-5 -570 1142 0
-5 -571 1143 0
-5 -572 1144 0
-6 -569 1142 0
-6 -570 1143 0
-6 -571 1144 0
-6 -572 1141 0
-7 -569 1143 0
-7 -570 1144 0
-7 -571 1141 0
-7 -572 1142 0
-8 -569 1144 0
-8 -570 1141 0
-8 -571 1142 0
-8 -572 1143 0
-25 -161 1145 0
-25 -162 1146 0
-25 -163 1147 0
-25 -164 1148 0
-26 -161 1146 0
-26 -162 1147 0
-26 -163 1148 0
-26 -164 1145 0
-27 -161 1147 0
-27 -162 1148 0
-27 -163 1145 0
-27 -164 1146 0
-28 -161 1148 0
-28 -162 1145 0
-28 -163 1146 0
-28 -164 1147 0
-5 -573 1149 0
-5 -574 1150 0
-5 -575 1151 0
-5 -576 1152 0
-6 -573 1150 0
-6 -574 1151 0
-6 -575 1152 0
-6 -576 1149 0
-7 -573 1151 0
-7 -574 1152 0
-7 -575 1149 0
-7 -576 1150 0
-8 -573 1152 0
-8 -574 1149 0
-8 -575 1150 0
-8 -576 1151 0
-65 -65 1153 0
-65 -66 1154 0
-65 -67 1155 0
-65 -68 1156 0
-66 -65 1154 0
-66 -66 1155 0
-66 -67 1156 0
-66 -68 1153 0
-67 -65 1155 0
-67 -66 1156 0
-67 -67 1153 0
-67 -68 1154 0
-68 -65 1156 0
-68 -66 1153 0
-68 -67 1154 0
-68 -68 1155 0
-5 -577 1157 0
-5 -578 1158 0
-5 -579 1159 0
-5 -580 1160 0
-6 -577 1158 0
-6 -578 1159 0
-6 -579 1160 0
-6 -580 1157 0
-7 -577 1159 0
-7 -578 1160 0
-7 -579 1157 0
-7 -580 1158 0
-8 -577 1160 0
-8 -578 1157 0
-8 -579 1158 0
-8 -580 1159 0
-9 -385 1161 0
-9 -386 1162 0
-9 -387 1163 0
-9 -388 1164 0
-10 -385 1162 0
-10 -386 1163 0
-10 -387 1164 0
-10 -388 1161 0
-11 -385 1163 0
-11 -386 1164 0
-11 -387 1161 0
-11 -388 1162 0
-12 -385 1164 0
-12 -386 1161 0
-12 -387 1162 0
-12 -388 1163 0
-5 -581 1165 0
-5 -582 1166 0
-5 -583 1167 0
-5 -584 1168 0
-6 -581 1166 0
-6 -582 1167 0
-6 -583 1168 0
-6 -584 1165 0
-7 -581 1167 0
-7 -582 1168 0
-7 -583 1165 0
-7 -584 1166 0
-8 -581 1168 0
-8 -582 1165 0
-8 -583 1166 0
-8 -584 1167 0
1169 1170 1171 1172 0
-1169 -1170 0
-1169 -1171 0
-1169 -1172 0
-1170 -1171 0
-1170 -1172 0
-1171 -1172 0
-5 -585 1173 0
-5 -586 1174 0
-5 -587 1175 0
-5 -588 1176 0
-6 -585 1174 0
-6 -586 1175 0
-6 -587 1176 0
-6 -588 1173 0
-7 -585 1175 0
-7 -586 1176 0
-7 -587 1173 0
-7 -588 1174 0
-8 -585 1176 0
-8 -586 1173 0
-8 -587 1174 0
-8 -588 1175 0
-17 -233 1177 0
-17 -234 1178 0
-17 -235 1179 0
-17 -236 1180 0
-18 -233 1178 0
-18 -234 1179 0
-18 -235 1180 0
-18 -236 1177 0
-19 -233 1179 0
-19 -234 1180 0
-19 -235 1177 0
-19 -236 1178 0
-20 -233 1180 0
-20 -234 1177 0
-20 -235 1178 0
-20 -236 1179 0
-5 -589 1181 0
-5 -590 1182 0
-5 -591 1183 0
-5 -592 1184 0
-6 -589 1182 0
-6 -590 1183 0
-6 -591 1184 0
-6 -592 1181 0
-7 -589 1183 0
-7 -590 1184 0
-7 -591 1181 0
-7 -592 1182 0
-8 -589 1184 0
-8 -590 1181 0
-8 -591 1182 0
-8 -592 1183 0
-9 -393 1185 0
-9 -394 1186 0
-9 -395 1187 0
-9 -396 1188 0
-10 -393 1186 0
-10 -394 1187 0
-10 -395 1188 0
-10 -396 1185 0
-11 -393 1187 0
-11 -394 1188 0
-11 -395 1185 0
-11 -396 1186 0
-12 -393 1188 0
-12 -394 1185 0
-12 -395 1186 0
-12 -396 1187 0
-5 -593 1189 0
-5 -594 1190 0
-5 -595 1191 0
-5 -596 1192 0
-6 -593 1190 0
-6 -594 1191 0
-6 -595 1192 0
-6 -596 1189 0
-7 -593 1191 0
-7 -594 1192 0
-7 -595 1189 0
-7 -596 1190 0
-8 -593 1192 0
-8 -594 1189 0
-8 -595 1190 0
-8 -596 1191 0
-49 -89 1193 0
-49 -90 1194 0
-49 -91 1195 0
-49 -92 1196 0
-50 -89 1194 0
-50 -90 1195 0
-50 -91 1196 0
-50 -92 1193 0
-51 -89 1195 0
-51 -90 1196 0
-51 -91 1193 0
-51 -92 1194 0
-52 -89 1196 0
-52 -90 1193 0
-52 -91 1194 0
-52 -92 1195 0
-5 -597 1197 0
-5 -598 1198 0
-5 -599 1199 0
-5 -600 1200 0
-6 -597 1198 0
-6 -598 1199 0
-6 -599 1200 0
-6 -600 1197 0
-7 -597 1199 0
-7 -598 1200 0
-7 -599 1197 0
-7 -600 1198 0
-8 -597 1200 0
-8 -598 1197 0
-8 -599 1198 0
-8 -600 1199 0
-25 -169 1201 0
-25 -170 1202 0
-25 -171 1203 0
-25 -172 1204 0
-26 -169 1202 0
-26 -170 1203 0
-26 -171 1204 0
-26 -172 1201 0
-27 -169 1203 0
-27 -170 1204 0
-27 -171 1201 0
-27 -172 1202 0
-28 -169 1204 0
-28 -170 1201 0
-28 -171 1202 0
-28 -172 1203 0
-5 -601 1205 0
-5 -602 1206 0
-5 -603 1207 0
-5 -604 1208 0
-6 -601 1206 0
-6 -602 1207 0
-6 -603 1208 0
-6 -604 1205 0
-7 -601 1207 0
-7 -602 1208 0
-7 -603 1205 0
-7 -604 1206 0
-8 -601 1208 0
-8 -602 1205 0
-8 -603 1206 0
-8 -604 1207 0
-9 -401 1209 0
-9 -402 1210 0
-9 -403 1211 0
-9 -404 1212 0
-10 -401 1210 0
-10 -402 1211 0
-10 -403 1212 0
-10 -404 1209 0
-11 -401 1211 0
-11 -402 1212 0
-11 -403 1209 0
-11 -404 1210 0
-12 -401 1212 0
-12 -402 1209 0
-12 -403 1210 0
-12 -404 1211 0
-5 -605 1213 0
-5 -606 1214 0
-5 -607 1215 0
-5 -608 1216 0
-6 -605 1214 0
-6 -606 1215 0
-6 -607 1216 0
-6 -608 1213 0
-7 -605 1215 0
-7 -606 1216 0
-7 -607 1213 0
-7 -608 1214 0
-8 -605 1216 0
-8 -606 1213 0
-8 -607 1214 0
-8 -608 1215 0
-17 -241 1217 0
-17 -242 1218 0
-17 -243 1219 0
-17 -244 1220 0
-18 -241 1218 0
-18 -242 1219 0
-18 -243 1220 0
-18 -244 1217 0
-19 -241 1219 0
-19 -242 1220 0
-19 -243 1217 0
-19 -244 1218 0
-20 -241 1220 0
-20 -242 1217 0
-20 -243 1218 0
-20 -244 1219 0
-5 -609 1221 0
-5 -610 1222 0
-5 -611 1223 0
-5 -612 1224 0
-6 -609 1222 0
-6 -610 1223 0
-6 -611 1224 0
-6 -612 1221 0
-7 -609 1223 0
-7 -610 1224 0
-7 -611 1221 0
-7 -612 1222 0
-8 -609 1224 0
-8 -610 1221 0
-8 -611 1222 0
-8 -612 1223 0
1225 1226 1227 1228 0
-1225 -1226 0
-1225 -1227 0
-1225 -1228 0
-1226 -1227 0
-1226 -1228 0
-1227 -1228 0
-5 -613 1229 0
-5 -614 1230 0
-5 -615 1231 0
-5 -616 1232 0
-6 -613 1230 0
-6 -614 1231 0
-6 -615 1232 0
-6 -616 1229 0
-7 -613 1231 0
-7 -614 1232 0
-7 -615 1229 0
-7 -616 1230 0
-8 -613 1232 0
-8 -614 1229 0
-8 -615 1230 0
-8 -616 1231 0
-9 -409 1233 0
-9 -410 1234 0
-9 -411 1235 0
-9 -412 1236 0
-10 -409 1234 0
-10 -410 1235 0
-10 -411 1236 0
-10 -412 1233 0
-11 -409 1235 0
-11 -410 1236 0
-11 -411 1233 0
-11 -412 1234 0
-12 -409 1236 0
-12 -410 1233 0
-12 -411 1234 0
-12 -412 1235 0
-5 -617 1237 0
-5 -618 1238 0
-5 -619 1239 0
-5 -620 1240 0
-6 -617 1238 0
-6 -618 1239 0
-6 -619 1240 0
-6 -620 1237 0
-7 -617 1239 0
-7 -618 1240 0
-7 -619 1237 0
-7 -620 1238 0
-8 -617 1240 0
-8 -618 1237 0
-8 -619 1238 0
-8 -620 1239 0
1241 1242 1243 1244 0
-1241 -1242 0
-1241 -1243 0
-1241 -1244 0
-1242 -1243 0
-1242 -1244 0
-1243 -1244 0
-5 -621 1245 0
-5 -622 1246 0
-5 -623 1247 0
-5 -624 1248 0
-6 -621 1246 0
-6 -622 1247 0
-6 -623 1248 0
-6 -624 1245 0
-7 -621 1247 0
-7 -622 1248 0
-7 -623 1245 0
-7 -624 1246 0
-8 -621 1248 0
-8 -622 1245 0
-8 -623 1246 0
-8 -624 1247 0
1249 1250 1251 1252 0
-1249 -1250 0
-1249 -1251 0
-1249 -1252 0
-1250 -1251 0
-1250 -1252 0
-1251 -1252 0
-5 -625 1253 0
-5 -626 1254 0
-5 -627 1255 0
-5 -628 1256 0
-6 -625 1254 0
-6 -626 1255 0
-6 -627 1256 0
-6 -628 1253 0
-7 -625 1255 0
-7 -626 1256 0
-7 -627 1253 0
-7 -628 1254 0
-8 -625 1256 0
-8 -626 1253 0
-8 -627 1254 0
-8 -628 1255 0
-9 -417 1257 0
-9 -418 1258 0
-9 -419 1259 0
-9 -420 1260 0
-10 -417 1258 0
-10 -418 1259 0
-10 -419 1260 0
-10 -420 1257 0
-11 -417 1259 0
-11 -418 1260 0
-11 -419 1257 0
-11 -420 1258 0
-12 -417 1260 0
-12 -418 1257 0
-12 -419 1258 0
-12 -420 1259 0
-5 -629 1261 0
-5 -630 1262 0
-5 -631 1263 0
-5 -632 1264 0
-6 -629 1262 0
-6 -630 1263 0
-6 -631 1264 0
-6 -632 1261 0
-7 -629 1263 0
-7 -630 1264 0
-7 -631 1261 0
-7 -632 1262 0
-8 -629 1264 0
-8 -630 1261 0
-8 -631 1262 0
-8 -632 1263 0
1265 1266 1267 1268 0
-1265 -1266 0
-1265 -1267 0
-1265 -1268 0
-1266 -1267 0
-1266 -1268 0
-1267 -1268 0
-5 -633 1269 0
-5 -634 1270 0
-5 -635 1271 0
-5 -636 1272 0
-6 -633 1270 0
-6 -634 1271 0
-6 -635 1272 0
-6 -636 1269 0
-7 -633 1271 0
-7 -634 1272 0
-7 -635 1269 0
-7 -636 1270 0
-8 -633 1272 0
-8 -634 1269 0
-8 -635 1270 0
-8 -636 1271 0
-41 -113 1273 0
-41 -114 1274 0
-41 -115 1275 0
-41 -116 1276 0
-42 -113 1274 0
-42 -114 1275 0
-42 -115 1276 0
-42 -116 1273 0
-43 -113 1275 0
-43 -114 1276 0
-43 -115 1273 0
-43 -116 1274 0
-44 -113 1276 0
-44 -114 1273 0
-44 -115 1274 0
-44 -116 1275 0
-5 -637 1277 0
-5 -638 1278 0
-5 -639 1279 0
-5 -640 1280 0
-6 -637 1278 0
-6 -638 1279 0
-6 -639 1280 0
-6 -640 1277 0
-7 -637 1279 0
-7 -638 1280 0
-7 -639 1277 0
-7 -640 1278 0
-8 -637 1280 0
-8 -638 1277 0
-8 -639 1278 0
-8 -640 1279 0
-9 -425 1281 0
-9 -426 1282 0
-9 -427 1283 0
-9 -428 1284 0
-10 -425 1282 0
-10 -426 1283 0
-10 -427 1284 0
-10 -428 1281 0
-11 -425 1283 0
-11 -426 1284 0
-11 -427 1281 0
-11 -428 1282 0
-12 -425 1284 0
-12 -426 1281 0
-12 -427 1282 0
-12 -428 1283 0
-5 -641 1285 0
-5 -642 1286 0
-5 -643 1287 0
-5 -644 1288 0
-6 -641 1286 0
-6 -642 1287 0
-6 -643 1288 0
-6 -644 1285 0
-7 -641 1287 0
-7 -642 1288 0
-7 -643 1285 0
-7 -644 1286 0
-8 -641 1288 0
-8 -642 1285 0
-8 -643 1286 0
-8 -644 1287 0
-65 -73 1289 0
-65 -74 1290 0
-65 -75 1291 0
-65 -76 1292 0
-66 -73 1290 0
-66 -74 1291 0
-66 -75 1292 0
-66 -76 1289 0
-67 -73 1291 0
-67 -74 1292 0
-67 -75 1289 0
-67 -76 1290 0
-68 -73 1292 0
-68 -74 1289 0
-68 -75 1290 0
-68 -76 1291 0
-5 -645 1293 0
-5 -646 1294 0
-5 -647 1295 0
-5 -648 1296 0
-6 -645 1294 0
-6 -646 1295 0
-6 -647 1296 0
-6 -648 1293 0
-7 -645 1295 0
-7 -646 1296 0
-7 -647 1293 0
-7 -648 1294 0
-8 -645 1296 0
-8 -646 1293 0
-8 -647 1294 0
-8 -648 1295 0
-17 -257 1297 0
-17 -258 1298 0
-17 -259 1299 0
-17 -260 1300 0
-18 -257 1298 0
-18 -258 1299 0
-18 -259 1300 0
-18 -260 1297 0
-19 -257 1299 0
-19 -258 1300 0
-19 -259 1297 0
-19 -260 1298 0
-20 -257 1300 0
-20 -258 1297 0
-20 -259 1298 0
-20 -260 1299 0
-5 -649 1301 0
-5 -650 1302 0
-5 -651 1303 0
-5 -652 1304 0
-6 -649 1302 0
-6 -650 1303 0
-6 -651 1304 0
-6 -652 1301 0
-7 -649 1303 0
-7 -650 1304 0
-7 -651 1301 0
-7 -652 1302 0
-8 -649 1304 0
-8 -650 1301 0
-8 -651 1302 0
-8 -652 1303 0
-9 -433 1305 0
-9 -434 1306 0
-9 -435 1307 0
-9 -436 1308 0
-10 -433 1306 0
-10 -434 1307 0
-10 -435 1308 0
-10 -436 1305 0
-11 -433 1307 0
-11 -434 1308 0
-11 -435 1305 0
-11 -436 1306 0
-12 -433 1308 0
-12 -434 1305 0
-12 -435 1306 0
-12 -436 1307 0
-5 -653 1309 0
-5 -654 1310 0
-5 -655 1311 0
-5 -656 1312 0
-6 -653 1310 0
-6 -654 1311 0
-6 -655 1312 0
-6 -656 1309 0
-7 -653 1311 0
-7 -654 1312 0
-7 -655 1309 0
-7 -656 1310 0
-8 -653 1312 0
-8 -654 1309 0
-8 -655 1310 0
-8 -656 1311 0
-25 -185 1313 0
-25 -186 1314 0
-25 -187 1315 0
-25 -188 1316 0
-26 -185 1314 0
-26 -186 1315 0
-26 -187 1316 0
-26 -188 1313 0
-27 -185 1315 0
-27 -186 1316 0
-27 -187 1313 0
-27 -188 1314 0
-28 -185 1316 0
-28 -186 1313 0
-28 -187 1314 0
-28 -188 1315 0
-5 -657 1317 0
-5 -658 1318 0
-5 -659 1319 0
-5 -660 1320 0
-6 -657 1318 0
-6 -658 1319 0
-6 -659 1320 0
-6 -660 1317 0
-7 -657 1319 0
-7 -658 1320 0
-7 -659 1317 0
-7 -660 1318 0
-8 -657 1320 0
-8 -658 1317 0
-8 -659 1318 0
-8 -660 1319 0
1321 1322 1323 1324 0
-1321 -1322 0
-1321 -1323 0
-1321 -1324 0
-1322 -1323 0
-1322 -1324 0
-1323 -1324 0
-5 -661 1325 0
-5 -662 1326 0
-5 -663 1327 0
-5 -664 1328 0
-6 -661 1326 0
-6 -662 1327 0
-6 -663 1328 0
-6 -664 1325 0
-7 -661 1327 0
-7 -662 1328 0
-7 -663 1325 0
-7 -664 1326 0
-8 -661 1328 0
-8 -662 1325 0
-8 -663 1326 0
-8 -664 1327 0
-9 -441 1329 0
-9 -442 1330 0
-9 -443 1331 0
-9 -444 1332 0
-10 -441 1330 0
-10 -442 1331 0
-10 -443 1332 0
-10 -444 1329 0
-11 -441 1331 0
-11 -442 1332 0
-11 -443 1329 0
-11 -444 1330 0
-12 -441 1332 0
-12 -442 1329 0
-12 -443 1330 0
-12 -444 1331 0
-5 -665 1333 0
-5 -666 1334 0
-5 -667 1335 0
-5 -668 1336 0
-6 -665 1334 0
-6 -666 1335 0
-6 -667 1336 0
-6 -668 1333 0
-7 -665 1335 0
-7 -666 1336 0
-7 -667 1333 0
-7 -668 1334 0
-8 -665 1336 0
-8 -666 1333 0
-8 -667 1334 0
-8 -668 1335 0
-17 -265 1337 0
-17 -266 1338 0
-17 -267 1339 0
-17 -268 1340 0
-18 -265 1338 0
-18 -266 1339 0
-18 -267 1340 0
-18 -268 1337 0
-19 -265 1339 0
-19 -266 1340 0
-19 -267 1337 0
-19 -268 1338 0
-20 -265 1340 0
-20 -266 1337 0
-20 -267 1338 0
-20 -268 1339 0
-5 -669 1341 0
-5 -670 1342 0
-5 -671 1343 0
-5 -672 1344 0
-6 -669 1342 0
-6 -670 1343 0
-6 -671 1344 0
-6 -672 1341 0
-7 -669 1343 0
-7 -670 1344 0
-7 -671 1341 0
-7 -672 1342 0
-8 -669 1344 0
-8 -670 1341 0
-8 -671 1342 0
-8 -672 1343 0
1345 1346 1347 1348 0
-1345 -1346 0
-1345 -1347 0
-1345 -1348 0
-1346 -1347 0
-1346 -1348 0
-1347 -1348 0
-5 -673 1349 0
-5 -674 1350 0
-5 -675 1351 0
-5 -676 1352 0
-6 -673 1350 0
-6 -674 1351 0
-6 -675 1352 0
-6 -676 1349 0
-7 -673 1351 0
-7 -674 1352 0
-7 -675 1349 0
-7 -676 1350 0
-8 -673 1352 0
-8 -674 1349 0
-8 -675 1350 0
-8 -676 1351 0
-9 -449 1353 0
-9 -450 1354 0
-9 -451 1355 0
-9 -452 1356 0
-10 -449 1354 0
-10 -450 1355 0
-10 -451 1356 0
-10 -452 1353 0
-11 -449 1355 0
-11 -450 1356 0
-11 -451 1353 0
-11 -452 1354 0
-12 -449 1356 0
-12 -450 1353 0
-12 -451 1354 0
-12 -452 1355 0
-5 -677 1357 0
-5 -678 1358 0
-5 -679 1359 0
-5 -680 1360 0
-6 -677 1358 0
-6 -678 1359 0
-6 -679 1360 0
-6 -680 1357 0
-7 -677 1359 0
-7 -678 1360 0
-7 -679 1357 0
-7 -680 1358 0
-8 -677 1360 0
-8 -678 1357 0
-8 -679 1358 0
-8 -680 1359 0
-41 -121 1361 0
-41 -122 1362 0
-41 -123 1363 0
-41 -124 1364 0
-42 -121 1362 0
-42 -122 1363 0
-42 -123 1364 0
-42 -124 1361 0
-43 -121 1363 0
-43 -122 1364 0
-43 -123 1361 0
-43 -124 1362 0
-44 -121 1364 0
-44 -122 1361 0
-44 -123 1362 0
-44 -124 1363 0
-5 -681 1365 0
-5 -682 1366 0
-5 -683 1367 0
-5 -684 1368 0
-6 -681 1366 0
-6 -682 1367 0
-6 -683 1368 0
-6 -684 1365 0
-7 -681 1367 0
-7 -682 1368 0
-7 -683 1365 0
-7 -684 1366 0
-8 -681 1368 0
-8 -682 1365 0
-8 -683 1366 0
-8 -684 1367 0
-25 -193 1369 0
-25 -194 1370 0
-25 -195 1371 0
-25 -196 1372 0
-26 -193 1370 0
-26 -194 1371 0
-26 -195 1372 0
-26 -196 1369 0
-27 -193 1371 0
-27 -194 1372 0
-27 -195 1369 0
-27 -196 1370 0
-28 -193 1372 0
-28 -194 1369 0
-28 -195 1370 0
-28 -196 1371 0
-5 -685 1373 0
-5 -686 1374 0
-5 -687 1375 0
-5 -688 1376 0
-6 -685 1374 0
-6 -686 1375 0
-6 -687 1376 0
-6 -688 1373 0
-7 -685 1375 0
-7 -686 1376 0
-7 -687 1373 0
-7 -688 1374 0
-8 -685 1376 0
-8 -686 1373 0
-8 -687 1374 0
-8 -688 1375 0
-9 -457 1377 0
-9 -458 1378 0
-9 -459 1379 0
-9 -460 1380 0
-10 -457 1378 0
-10 -458 1379 0
-10 -459 1380 0
-10 -460 1377 0
-11 -457 1379 0
-11 -458 1380 0
-11 -459 1377 0
-11 -460 1378 0
-12 -457 1380 0
-12 -458 1377 0
-12 -459 1378 0
-12 -460 1379 0
-5 -689 1381 0
-5 -690 1382 0
-5 -691 1383 0
-5 -692 1384 0
-6 -689 1382 0
-6 -690 1383 0
-6 -691 1384 0
-6 -692 1381 0
-7 -689 1383 0
-7 -690 1384 0
-7 -691 1381 0
-7 -692 1382 0
-8 -689 1384 0
-8 -690 1381 0
-8 -691 1382 0
-8 -692 1383 0
1385 1386 1387 1388 0
-1385 -1386 0
-1385 -1387 0
-1385 -1388 0
-1386 -1387 0
-1386 -1388 0
-1387 -1388 0
-5 -693 1389 0
-5 -694 1390 0
-5 -695 1391 0
-5 -696 1392 0
-6 -693 1390 0
-6 -694 1391 0
-6 -695 1392 0
-6 -696 1389 0
-7 -693 1391 0
-7 -694 1392 0
-7 -695 1389 0
-7 -696 1390 0
-8 -693 1392 0
-8 -694 1389 0
-8 -695 1390 0
-8 -696 1391 0
1393 1394 1395 1396 0
-1393 -1394 0
-1393 -1395 0
-1393 -1396 0
-1394 -1395 0
-1394 -1396 0
-1395 -1396 0
-5 -697 1397 0
-5 -698 1398 0
-5 -699 1399 0
-5 -700 1400 0
-6 -697 1398 0
-6 -698 1399 0
-6 -699 1400 0
-6 -700 1397 0
-7 -697 1399 0
-7 -698 1400 0
-7 -699 1397 0
-7 -700 1398 0
-8 -697 1400 0
-8 -698 1397 0
-8 -699 1398 0
-8 -700 1399 0
-9 -465 1401 0
-9 -466 1402 0
-9 -467 1403 0
-9 -468 1404 0
-10 -465 1402 0
-10 -466 1403 0
-10 -467 1404 0
-10 -468 1401 0
-11 -465 1403 0
-11 -466 1404 0
-11 -467 1401 0
-11 -468 1402 0
-12 -465 1404 0
-12 -466 1401 0
-12 -467 1402 0
-12 -468 1403 0
-5 -701 1405 0
-5 -702 1406 0
-5 -703 1407 0
-5 -704 1408 0
-6 -701 1406 0
-6 -702 1407 0
-6 -703 1408 0
-6 -704 1405 0
-7 -701 1407 0
-7 -702 1408 0
-7 -703 1405 0
-7 -704 1406 0
-8 -701 1408 0
-8 -702 1405 0
-8 -703 1406 0
-8 -704 1407 0
1409 1410 1411 1412 0
-1409 -1410 0
-1409 -1411 0
-1409 -1412 0
-1410 -1411 0
-1410 -1412 0
-1411 -1412 0
-5 -705 1413 0
-5 -706 1414 0
-5 -707 1415 0
-5 -708 1416 0
-6 -705 1414 0
-6 -706 1415 0
-6 -707 1416 0
-6 -708 1413 0
-7 -705 1415 0
-7 -706 1416 0
-7 -707 1413 0
-7 -708 1414 0
-8 -705 1416 0
-8 -706 1413 0
-8 -707 1414 0
-8 -708 1415 0
-17 -281 1417 0
-17 -282 1418 0
-17 -283 1419 0
-17 -284 1420 0
-18 -281 1418 0
-18 -282 1419 0
-18 -283 1420 0
-18 -284 1417 0
-19 -281 1419 0
-19 -282 1420 0
-19 -283 1417 0
-19 -284 1418 0
-20 -281 1420 0
-20 -282 1417 0
-20 -283 1418 0
-20 -284 1419 0
-5 -709 1421 0
-5 -710 1422 0
-5 -711 1423 0
-5 -712 1424 0
-6 -709 1422 0
-6 -710 1423 0
-6 -711 1424 0
-6 -712 1421 0
-7 -709 1423 0
-7 -710 1424 0
-7 -711 1421 0
-7 -712 1422 0
-8 -709 1424 0
-8 -710 1421 0
-8 -711 1422 0
-8 -712 1423 0
-9 -473 1425 0
-9 -474 1426 0
-9 -475 1427 0
-9 -476 1428 0
-10 -473 1426 0
-10 -474 1427 0
-10 -475 1428 0
-10 -476 1425 0
-11 -473 1427 0
-11 -474 1428 0
-11 -475 1425 0
-11 -476 1426 0
-12 -473 1428 0
-12 -474 1425 0
-12 -475 1426 0
-12 -476 1427 0
-5 -713 1429 0
-5 -714 1430 0
-5 -715 1431 0
-5 -716 1432 0
-6 -713 1430 0
-6 -714 1431 0
-6 -715 1432 0
-6 -716 1429 0
-7 -713 1431 0
-7 -714 1432 0
-7 -715 1429 0
-7 -716 1430 0
-8 -713 1432 0
-8 -714 1429 0
-8 -715 1430 0
-8 -716 1431 0
1433 1434 1435 1436 0
-1433 -1434 0
-1433 -1435 0
-1433 -1436 0
-1434 -1435 0
-1434 -1436 0
-1435 -1436 0
-5 -717 1437 0
-5 -718 1438 0
-5 -719 1439 0
-5 -720 1440 0
-6 -717 1438 0
-6 -718 1439 0
-6 -719 1440 0
-6 -720 1437 0
-7 -717 1439 0
-7 -718 1440 0
-7 -719 1437 0
-7 -720 1438 0
-8 -717 1440 0
-8 -718 1437 0
-8 -719 1438 0
-8 -720 1439 0
-73 -73 1441 0
-73 -74 1442 0
-73 -75 1443 0
-73 -76 1444 0
-74 -73 1442 0
-74 -74 1443 0
-74 -75 1444 0
-74 -76 1441 0
-75 -73 1443 0
-75 -74 1444 0
-75 -75 1441 0
-75 -76 1442 0
-76 -73 1444 0
-76 -74 1441 0
-76 -75 1442 0
-76 -76 1443 0
-5 -721 1445 0
-5 -722 1446 0
-5 -723 1447 0
-5 -724 1448 0
-6 -721 1446 0
-6 -722 1447 0
-6 -723 1448 0
-6 -724 1445 0
-7 -721 1447 0
-7 -722 1448 0
-7 -723 1445 0
-7 -724 1446 0
-8 -721 1448 0
-8 -722 1445 0
-8 -723 1446 0
-8 -724 1447 0
-9 -481 1449 0
-9 -482 1450 0
-9 -483 1451 0
-9 -484 1452 0
-10 -481 1450 0
-10 -482 1451 0
-10 -483 1452 0
-10 -484 1449 0
-11 -481 1451 0
-11 -482 1452 0
-11 -483 1449 0
-11 -484 1450 0
-12 -481 1452 0
-12 -482 1449 0
-12 -483 1450 0
-12 -484 1451 0
-5 -725 1453 0
-5 -726 1454 0
-5 -727 1455 0
-5 -728 1456 0
-6 -725 1454 0
-6 -726 1455 0
-6 -727 1456 0
-6 -728 1453 0
-7 -725 1455 0
-7 -726 1456 0
-7 -727 1453 0
-7 -728 1454 0
-8 -725 1456 0
-8 -726 1453 0
-8 -727 1454 0
-8 -728 1455 0
-17 -289 1457 0
-17 -290 1458 0
-17 -291 1459 0
-17 -292 1460 0
-18 -289 1458 0
-18 -290 1459 0
-18 -291 1460 0
-18 -292 1457 0
-19 -289 1459 0
-19 -290 1460 0
-19 -291 1457 0
-19 -292 1458 0
-20 -289 1460 0
-20 -290 1457 0
-20 -291 1458 0
-20 -292 1459 0
-5 -729 1461 0
-5 -730 1462 0
-5 -731 1463 0
-5 -732 1464 0
-6 -729 1462 0
-6 -730 1463 0
-6 -731 1464 0
-6 -732 1461 0
-7 -729 1463 0
-7 -730 1464 0
-7 -731 1461 0
-7 -732 1462 0
-8 -729 1464 0
-8 -730 1461 0
-8 -731 1462 0
-8 -732 1463 0
1465 1466 1467 1468 0
-1465 -1466 0
-1465 -1467 0
-1465 -1468 0
-1466 -1467 0
-1466 -1468 0
-1467 -1468 0
-5 -733 1469 0
-5 -734 1470 0
-5 -735 1471 0
-5 -736 1472 0
-6 -733 1470 0
-6 -734 1471 0
-6 -735 1472 0
-6 -736 1469 0
-7 -733 1471 0
-7 -734 1472 0
-7 -735 1469 0
-7 -736 1470 0
-8 -733 1472 0
-8 -734 1469 0
-8 -735 1470 0
-8 -736 1471 0
-9 -489 1473 0
-9 -490 1474 0
-9 -491 1475 0
-9 -492 1476 0
-10 -489 1474 0
-10 -490 1475 0
-10 -491 1476 0
-10 -492 1473 0
-11 -489 1475 0
-11 -490 1476 0
-11 -491 1473 0
-11 -492 1474 0
-12 -489 1476 0
-12 -490 1473 0
-12 -491 1474 0
-12 -492 1475 0
-5 -737 1477 0
-5 -738 1478 0
-5 -739 1479 0
-5 -740 1480 0
-6 -737 1478 0
-6 -738 1479 0
-6 -739 1480 0
-6 -740 1477 0
-7 -737 1479 0
-7 -738 1480 0
-7 -739 1477 0
-7 -740 1478 0
-8 -737 1480 0
-8 -738 1477 0
-8 -739 1478 0
-8 -740 1479 0
-25 -209 1481 0
-25 -210 1482 0
-25 -211 1483 0
-25 -212 1484 0
-26 -209 1482 0
-26 -210 1483 0
-26 -211 1484 0
-26 -212 1481 0
-27 -209 1483 0
-27 -210 1484 0
-27 -211 1481 0
-27 -212 1482 0
-28 -209 1484 0
-28 -210 1481 0
-28 -211 1482 0
-28 -212 1483 0
-5 -741 1485 0
-5 -742 1486 0
-5 -743 1487 0
-5 -744 1488 0
-6 -741 1486 0
-6 -742 1487 0
-6 -743 1488 0
-6 -744 1485 0
-7 -741 1487 0
-7 -742 1488 0
-7 -743 1485 0
-7 -744 1486 0
-8 -741 1488 0
-8 -742 1485 0
-8 -743 1486 0
-8 -744 1487 0
1489 1490 1491 1492 0
-1489 -1490 0
-1489 -1491 0
-1489 -1492 0
-1490 -1491 0
-1490 -1492 0
-1491 -1492 0
-5 -745 1493 0
-5 -746 1494 0
-5 -747 1495 0
-5 -748 1496 0
-6 -745 1494 0
-6 -746 1495 0
-6 -747 1496 0
-6 -748 1493 0
-7 -745 1495 0
-7 -746 1496 0
-7 -747 1493 0
-7 -748 1494 0
-8 -745 1496 0
-8 -746 1493 0
-8 -747 1494 0
-8 -748 1495 0
-9 -497 1497 0
-9 -498 1498 0
-9 -499 1499 0
-9 -500 1500 0
-10 -497 1498 0
-10 -498 1499 0
-10 -499 1500 0
-10 -500 1497 0
-11 -497 1499 0
-11 -498 1500 0
-11 -499 1497 0
-11 -500 1498 0
-12 -497 1500 0
-12 -498 1497 0
-12 -499 1498 0
-12 -500 1499 0
-5 -749 1501 0
-5 -750 1502 0
-5 -751 1503 0
-5 -752 1504 0
-6 -749 1502 0
-6 -750 1503 0
-6 -751 1504 0
-6 -752 1501 0
-7 -749 1503 0
-7 -750 1504 0
-7 -751 1501 0
-7 -752 1502 0
-8 -749 1504 0
-8 -750 1501 0
-8 -751 1502 0
-8 -752 1503 0
-49 -113 1505 0
-49 -114 1506 0
-49 -115 1507 0
-49 -116 1508 0
-50 -113 1506 0
-50 -114 1507 0
-50 -115 1508 0
-50 -116 1505 0
-51 -113 1507 0
-51 -114 1508 0
-51 -115 1505 0
-51 -116 1506 0
-52 -113 1508 0
-52 -114 1505 0
-52 -115 1506 0
-52 -116 1507 0
-5 -753 1509 0
-5 -754 1510 0
-5 -755 1511 0
-5 -756 1512 0
-6 -753 1510 0
-6 -754 1511 0
-6 -755 1512 0
-6 -756 1509 0
-7 -753 1511 0
-7 -754 1512 0
-7 -755 1509 0
-7 -756 1510 0
-8 -753 1512 0
-8 -754 1509 0
-8 -755 1510 0
-8 -756 1511 0
1513 1514 1515 1516 0
-1513 -1514 0
-1513 -1515 0
-1513 -1516 0
-1514 -1515 0
-1514 -1516 0
-1515 -1516 0
-5 -757 1517 0
-5 -758 1518 0
-5 -759 1519 0
-5 -760 1520 0
-6 -757 1518 0
-6 -758 1519 0
-6 -759 1520 0
-6 -760 1517 0
-7 -757 1519 0
-7 -758 1520 0
-7 -759 1517 0
-7 -760 1518 0
-8 -757 1520 0
-8 -758 1517 0
-8 -759 1518 0
-8 -760 1519 0
-9 -505 1521 0
-9 -506 1522 0
-9 -507 1523 0
-9 -508 1524 0
-10 -505 1522 0
-10 -506 1523 0
-10 -507 1524 0
-10 -508 1521 0
-11 -505 1523 0
-11 -506 1524 0
-11 -507 1521 0
-11 -508 1522 0
-12 -505 1524 0
-12 -506 1521 0
-12 -507 1522 0
-12 -508 1523 0
-5 -761 1525 0
-5 -762 1526 0
-5 -763 1527 0
-5 -764 1528 0
-6 -761 1526 0
-6 -762 1527 0
-6 -763 1528 0
-6 -764 1525 0
-7 -761 1527 0
-7 -762 1528 0
-7 -763 1525 0
-7 -764 1526 0
-8 -761 1528 0
-8 -762 1525 0
-8 -763 1526 0
-8 -764 1527 0
1529 1530 1531 1532 0
-1529 -1530 0
-1529 -1531 0
-1529 -1532 0
-1530 -1531 0
-1530 -1532 0
-1531 -1532 0
-5 -765 1533 0
-5 -766 1534 0
-5 -767 1535 0
-5 -768 1536 0
-6 -765 1534 0
-6 -766 1535 0
-6 -767 1536 0
-6 -768 1533 0
-7 -765 1535 0
-7 -766 1536 0
-7 -767 1533 0
-7 -768 1534 0
-8 -765 1536 0
-8 -766 1533 0
-8 -767 1534 0
-8 -768 1535 0
-17 -305 1537 0
-17 -306 1538 0
-17 -307 1539 0
-17 -308 1540 0
-18 -305 1538 0
-18 -306 1539 0
-18 -307 1540 0
-18 -308 1537 0
-19 -305 1539 0
-19 -306 1540 0
-19 -307 1537 0
-19 -308 1538 0
-20 -305 1540 0
-20 -306 1537 0
-20 -307 1538 0
-20 -308 1539 0
-5 -769 1541 0
-5 -770 1542 0
-5 -771 1543 0
-5 -772 1544 0
-6 -769 1542 0
-6 -770 1543 0
-6 -771 1544 0
-6 -772 1541 0
-7 -769 1543 0
-7 -770 1544 0
-7 -771 1541 0
-7 -772 1542 0
-8 -769 1544 0
-8 -770 1541 0
-8 -771 1542 0
-8 -772 1543 0
-9 -513 1545 0
-9 -514 1546 0
-9 -515 1547 0
-9 -516 1548 0
-10 -513 1546 0
-10 -514 1547 0
-10 -515 1548 0
-10 -516 1545 0
-11 -513 1547 0
-11 -514 1548 0
-11 -515 1545 0
-11 -516 1546 0
-12 -513 1548 0
-12 -514 1545 0
-12 -515 1546 0
-12 -516 1547 0
-5 -773 1549 0
-5 -774 1550 0
-5 -775 1551 0
-5 -776 1552 0
-6 -773 1550 0
-6 -774 1551 0
-6 -775 1552 0
-6 -776 1549 0
-7 -773 1551 0
-7 -774 1552 0
-7 -775 1549 0
-7 -776 1550 0
-8 -773 1552 0
-8 -774 1549 0
-8 -775 1550 0
-8 -776 1551 0
1553 1554 1555 1556 0
-1553 -1554 0
-1553 -1555 0
-1553 -1556 0
-1554 -1555 0
-1554 -1556 0
-1555 -1556 0
-5 -777 1557 0
-5 -778 1558 0
-5 -779 1559 0
-5 -780 1560 0
-6 -777 1558 0
-6 -778 1559 0
-6 -779 1560 0
-6 -780 1557 0
-7 -777 1559 0
-7 -778 1560 0
-7 -779 1557 0
-7 -780 1558 0
-8 -777 1560 0
-8 -778 1557 0
-8 -779 1558 0
-8 -780 1559 0
-65 -89 1561 0
-65 -90 1562 0
-65 -91 1563 0
-65 -92 1564 0
-66 -89 1562 0
-66 -90 1563 0
-66 -91 1564 0
-66 -92 1561 0
-67 -89 1563 0
-67 -90 1564 0
-67 -91 1561 0
-67 -92 1562 0
-68 -89 1564 0
-68 -90 1561 0
-68 -91 1562 0
-68 -92 1563 0
-5 -781 1565 0
-5 -782 1566 0
-5 -783 1567 0
-5 -784 1568 0
-6 -781 1566 0
-6 -782 1567 0
-6 -783 1568 0
-6 -784 1565 0
-7 -781 1567 0
-7 -782 1568 0
-7 -783 1565 0
-7 -784 1566 0
-8 -781 1568 0
-8 -782 1565 0
-8 -783 1566 0
-8 -784 1567 0
-9 -521 1569 0
-9 -522 1570 0
-9 -523 1571 0
-9 -524 1572 0
-10 -521 1570 0
-10 -522 1571 0
-10 -523 1572 0
-10 -524 1569 0
-11 -521 1571 0
-11 -522 1572 0
-11 -523 1569 0
-11 -524 1570 0
-12 -521 1572 0
-12 -522 1569 0
-12 -523 1570 0
-12 -524 1571 0
-5 -785 1573 0
-5 -786 1574 0
-5 -787 1575 0
-5 -788 1576 0
-6 -785 1574 0
-6 -786 1575 0
-6 -787 1576 0
-6 -788 1573 0
-7 -785 1575 0
-7 -786 1576 0
-7 -787 1573 0
-7 -788 1574 0
-8 -785 1576 0
-8 -786 1573 0
-8 -787 1574 0
-8 -788 1575 0
-17 -313 1577 0
-17 -314 1578 0
-17 -315 1579 0
-17 -316 1580 0
-18 -313 1578 0
-18 -314 1579 0
-18 -315 1580 0
-18 -316 1577 0
-19 -313 1579 0
-19 -314 1580 0
-19 -315 1577 0
-19 -316 1578 0
-20 -313 1580 0
-20 -314 1577 0
-20 -315 1578 0
-20 -316 1579 0
-5 -789 1581 0
-5 -790 1582 0
-5 -791 1583 0
-5 -792 1584 0
-6 -789 1582 0
-6 -790 1583 0
-6 -791 1584 0
-6 -792 1581 0
-7 -789 1583 0
-7 -790 1584 0
-7 -791 1581 0
-7 -792 1582 0
-8 -789 1584 0
-8 -790 1581 0
-8 -791 1582 0
-8 -792 1583 0
1585 1586 1587 1588 0
-1585 -1586 0
-1585 -1587 0
-1585 -1588 0
-1586 -1587 0
-1586 -1588 0
-1587 -1588 0
-5 -793 1589 0
-5 -794 1590 0
-5 -795 1591 0
-5 -796 1592 0
-6 -793 1590 0
-6 -794 1591 0
-6 -795 1592 0
-6 -796 1589 0
-7 -793 1591 0
-7 -794 1592 0
-7 -795 1589 0
-7 -796 1590 0
-8 -793 1592 0
-8 -794 1589 0
-8 -795 1590 0
-8 -796 1591 0
-9 -529 1593 0
-9 -530 1594 0
-9 -531 1595 0
-9 -532 1596 0
-10 -529 1594 0
-10 -530 1595 0
-10 -531 1596 0
-10 -532 1593 0
-11 -529 1595 0
-11 -530 1596 0
-11 -531 1593 0
-11 -532 1594 0
-12 -529 1596 0
-12 -530 1593 0
-12 -531 1594 0
-12 -532 1595 0
-5 -797 1597 0
-5 -798 1598 0
-5 -799 1599 0
-5 -800 1600 0
-6 -797 1598 0
-6 -798 1599 0
-6 -799 1600 0
-6 -800 1597 0
-7 -797 1599 0
-7 -798 1600 0
-7 -799 1597 0
-7 -800 1598 0
-8 -797 1600 0
-8 -798 1597 0
-8 -799 1598 0
-8 -800 1599 0
1601 1602 1603 1604 0
-1601 -1602 0
-1601 -1603 0
-1601 -1604 0
-1602 -1603 0
-1602 -1604 0
-1603 -1604 0
-5 -801 1605 0
-5 -802 1606 0
-5 -803 1607 0
-5 -804 1608 0
-6 -801 1606 0
-6 -802 1607 0
-6 -803 1608 0
-6 -804 1605 0
-7 -801 1607 0
-7 -802 1608 0
-7 -803 1605 0
-7 -804 1606 0
-8 -801 1608 0
-8 -802 1605 0
-8 -803 1606 0
-8 -804 1607 0
-49 -121 1609 0
-49 -122 1610 0
-49 -123 1611 0
-49 -124 1612 0
-50 -121 1610 0
-50 -122 1611 0
-50 -123 1612 0
-50 -124 1609 0
-51 -121 1611 0
-51 -122 1612 0
-51 -123 1609 0
-51 -124 1610 0
-52 -121 1612 0
-52 -122 1609 0
-52 -123 1610 0
-52 -124 1611 0
-5 -805 1613 0
-5 -806 1614 0
-5 -807 1615 0
-5 -808 1616 0
-6 -805 1614 0
-6 -806 1615 0
-6 -807 1616 0
-6 -808 1613 0
-7 -805 1615 0
-7 -806 1616 0
-7 -807 1613 0
-7 -808 1614 0
-8 -805 1616 0
-8 -806 1613 0
-8 -807 1614 0
-8 -808 1615 0
-9 -537 1617 0
-9 -538 1618 0
-9 -539 1619 0
-9 -540 1620 0
-10 -537 1618 0
-10 -538 1619 0
-10 -539 1620 0
-10 -540 1617 0
-11 -537 1619 0
-11 -538 1620 0
-11 -539 1617 0
-11 -540 1618 0
-12 -537 1620 0
-12 -538 1617 0
-12 -539 1618 0
-12 -540 1619 0
-5 -809 1621 0
-5 -810 1622 0
-5 -811 1623 0
-5 -812 1624 0
-6 -809 1622 0
-6 -810 1623 0
-6 -811 1624 0
-6 -812 1621 0
-7 -809 1623 0
-7 -810 1624 0
-7 -811 1621 0
-7 -812 1622 0
-8 -809 1624 0
-8 -810 1621 0
-8 -811 1622 0
-8 -812 1623 0
-41 -145 1625 0
-41 -146 1626 0
-41 -147 1627 0
-41 -148 1628 0
-42 -145 1626 0
-42 -146 1627 0
-42 -147 1628 0
-42 -148 1625 0
-43 -145 1627 0
-43 -146 1628 0
-43 -147 1625 0
-43 -148 1626 0
-44 -145 1628 0
-44 -146 1625 0
-44 -147 1626 0
-44 -148 1627 0
-5 -813 1629 0
-5 -814 1630 0
-5 -815 1631 0
-5 -816 1632 0
-6 -813 1630 0
-6 -814 1631 0
-6 -815 1632 0
-6 -816 1629 0
-7 -813 1631 0
-7 -814 1632 0
-7 -815 1629 0
-7 -816 1630 0
-8 -813 1632 0
-8 -814 1629 0
-8 -815 1630 0
-8 -816 1631 0
1633 1634 1635 1636 0
-1633 -1634 0
-1633 -1635 0
-1633 -1636 0
-1634 -1635 0
-1634 -1636 0
-1635 -1636 0
-5 -817 1637 0
-5 -818 1638 0
-5 -819 1639 0
-5 -820 1640 0
-6 -817 1638 0
-6 -818 1639 0
-6 -819 1640 0
-6 -820 1637 0
-7 -817 1639 0
-7 -818 1640 0
-7 -819 1637 0
-7 -820 1638 0
-8 -817 1640 0
-8 -818 1637 0
-8 -819 1638 0
-8 -820 1639 0
-9 -545 1641 0
-9 -546 1642 0
-9 -547 1643 0
-9 -548 1644 0
-10 -545 1642 0
-10 -546 1643 0
-10 -547 1644 0
-10 -548 1641 0
-11 -545 1643 0
-11 -546 1644 0
-11 -547 1641 0
-11 -548 1642 0
-12 -545 1644 0
-12 -546 1641 0
-12 -547 1642 0
-12 -548 1643 0
-5 -821 1645 0
-5 -822 1646 0
-5 -823 1647 0
-5 -824 1648 0
-6 -821 1646 0
-6 -822 1647 0
-6 -823 1648 0
-6 -824 1645 0
-7 -821 1647 0
-7 -822 1648 0
-7 -823 1645 0
-7 -824 1646 0
-8 -821 1648 0
-8 -822 1645 0
-8 -823 1646 0
-8 -824 1647 0
-25 -233 1649 0
-25 -234 1650 0
-25 -235 1651 0
-25 -236 1652 0
-26 -233 1650 0
-26 -234 1651 0
-26 -235 1652 0
-26 -236 1649 0
-27 -233 1651 0
-27 -234 1652 0
-27 -235 1649 0
-27 -236 1650 0
-28 -233 1652 0
-28 -234 1649 0
-28 -235 1650 0
-28 -236 1651 0
-5 -825 1653 0
-5 -826 1654 0
-5 -827 1655 0
-5 -828 1656 0
-6 -825 1654 0
-6 -826 1655 0
-6 -827 1656 0
-6 -828 1653 0
-7 -825 1655 0
-7 -826 1656 0
-7 -827 1653 0
-7 -828 1654 0
-8 -825 1656 0
-8 -826 1653 0
-8 -827 1654 0
-8 -828 1655 0
-17 -329 1657 0
-17 -330 1658 0
-17 -331 1659 0
-17 -332 1660 0
-18 -329 1658 0
-18 -330 1659 0
-18 -331 1660 0
-18 -332 1657 0
-19 -329 1659 0
-19 -330 1660 0
-19 -331 1657 0
-19 -332 1658 0
-20 -329 1660 0
-20 -330 1657 0
-20 -331 1658 0
-20 -332 1659 0
-5 -829 1661 0
-5 -830 1662 0
-5 -831 1663 0
-5 -832 1664 0
-6 -829 1662 0
-6 -830 1663 0
-6 -831 1664 0
-6 -832 1661 0
-7 -829 1663 0
-7 -830 1664 0
-7 -831 1661 0
-7 -832 1662 0
-8 -829 1664 0
-8 -830 1661 0
-8 -831 1662 0
-8 -832 1663 0
-9 -553 1665 0
-9 -554 1666 0
-9 -555 1667 0
-9 -556 1668 0
-10 -553 1666 0
-10 -554 1667 0
-10 -555 1668 0
-10 -556 1665 0
-11 -553 1667 0
-11 -554 1668 0
-11 -555 1665 0
-11 -556 1666 0
-12 -553 1668 0
-12 -554 1665 0
-12 -555 1666 0
-12 -556 1667 0
-5 -833 1669 0
-5 -834 1670 0
-5 -835 1671 0
-5 -836 1672 0
-6 -833 1670 0
-6 -834 1671 0
-6 -835 1672 0
-6 -836 1669 0
-7 -833 1671 0
-7 -834 1672 0
-7 -835 1669 0
-7 -836 1670 0
-8 -833 1672 0
-8 -834 1669 0
-8 -835 1670 0
-8 -836 1671 0
1673 1674 1675 1676 0
-1673 -1674 0
-1673 -1675 0
-1673 -1676 0
-1674 -1675 0
-1674 -1676 0
-1675 -1676 0
-5 -837 1677 0
-5 -838 1678 0
-5 -839 1679 0
-5 -840 1680 0
-6 -837 1678 0
-6 -838 1679 0
-6 -839 1680 0
-6 -840 1677 0
-7 -837 1679 0
-7 -838 1680 0
-7 -839 1677 0
-7 -840 1678 0
-8 -837 1680 0
-8 -838 1677 0
-8 -839 1678 0
-8 -840 1679 0
1681 1682 1683 1684 0
-1681 -1682 0
-1681 -1683 0
-1681 -1684 0
-1682 -1683 0
-1682 -1684 0
-1683 -1684 0
-5 -841 1685 0
-5 -842 1686 0
-5 -843 1687 0
-5 -844 1688 0
-6 -841 1686 0
-6 -842 1687 0
-6 -843 1688 0
-6 -844 1685 0
-7 -841 1687 0
-7 -842 1688 0
-7 -843 1685 0
-7 -844 1686 0
-8 -841 1688 0
-8 -842 1685 0
-8 -843 1686 0
-8 -844 1687 0
-9 -561 1689 0
-9 -562 1690 0
-9 -563 1691 0
-9 -564 1692 0
-10 -561 1690 0
-10 -562 1691 0
-10 -563 1692 0
-10 -564 1689 0
-11 -561 1691 0
-11 -562 1692 0
-11 -563 1689 0
-11 -564 1690 0
-12 -561 1692 0
-12 -562 1689 0
-12 -563 1690 0
-12 -564 1691 0
-5 -845 1693 0
-5 -846 1694 0
-5 -847 1695 0
-5 -848 1696 0
-6 -845 1694 0
-6 -846 1695 0
-6 -847 1696 0
-6 -848 1693 0
-7 -845 1695 0
-7 -846 1696 0
-7 -847 1693 0
-7 -848 1694 0
-8 -845 1696 0
-8 -846 1693 0
-8 -847 1694 0
-8 -848 1695 0
-17 -337 1697 0
-17 -338 1698 0
-17 -339 1699 0
-17 -340 1700 0
-18 -337 1698 0
-18 -338 1699 0
-18 -339 1700 0
-18 -340 1697 0
-19 -337 1699 0
-19 -338 1700 0
-19 -339 1697 0
-19 -340 1698 0
-20 -337 1700 0
-20 -338 1697 0
-20 -339 1698 0
-20 -340 1699 0
-5 -849 1701 0
-5 -850 1702 0
-5 -851 1703 0
-5 -852 1704 0
-6 -849 1702 0
-6 -850 1703 0
-6 -851 1704 0
-6 -852 1701 0
-7 -849 1703 0
-7 -850 1704 0
-7 -851 1701 0
-7 -852 1702 0
-8 -849 1704 0
-8 -850 1701 0
-8 -851 1702 0
-8 -852 1703 0
-25 -241 1705 0
-25 -242 1706 0
-25 -243 1707 0
-25 -244 1708 0
-26 -241 1706 0
-26 -242 1707 0
-26 -243 1708 0
-26 -244 1705 0
-27 -241 1707 0
-27 -242 1708 0
-27 -243 1705 0
-27 -244 1706 0
-28 -241 1708 0
-28 -242 1705 0
-28 -243 1706 0
-28 -244 1707 0
-5 -853 1709 0
-5 -854 1710 0
-5 -855 1711 0
-5 -856 1712 0
-6 -853 1710 0
-6 -854 1711 0
-6 -855 1712 0
-6 -856 1709 0
-7 -853 1711 0
-7 -854 1712 0
-7 -855 1709 0
-7 -856 1710 0
-8 -853 1712 0
-8 -854 1709 0
-8 -855 1710 0
-8 -856 1711 0
-9 -569 1713 0
-9 -570 1714 0
-9 -571 1715 0
-9 -572 1716 0
-10 -569 1714 0
-10 -570 1715 0
-10 -571 1716 0
-10 -572 1713 0
-11 -569 1715 0
-11 -570 1716 0
-11 -571 1713 0
-11 -572 1714 0
-12 -569 1716 0
-12 -570 1713 0
-12 -571 1714 0
-12 -572 1715 0
-5 -857 1717 0
-5 -858 1718 0
-5 -859 1719 0
-5 -860 1720 0
-6 -857 1718 0
-6 -858 1719 0
-6 -859 1720 0
-6 -860 1717 0
-7 -857 1719 0
-7 -858 1720 0
-7 -859 1717 0
-7 -860 1718 0
-8 -857 1720 0
-8 -858 1717 0
-8 -859 1718 0
-8 -860 1719 0
1721 1722 1723 1724 0
-1721 -1722 0
-1721 -1723 0
-1721 -1724 0
-1722 -1723 0
-1722 -1724 0
-1723 -1724 0
-5 -861 1725 0
-5 -862 1726 0
-5 -863 1727 0
-5 -864 1728 0
-6 -861 1726 0
-6 -862 1727 0
-6 -863 1728 0
-6 -864 1725 0
-7 -861 1727 0
-7 -862 1728 0
-7 -863 1725 0
-7 -864 1726 0
-8 -861 1728 0
-8 -862 1725 0
-8 -863 1726 0
-8 -864 1727 0
1729 1730 1731 1732 0
-1729 -1730 0
-1729 -1731 0
-1729 -1732 0
-1730 -1731 0
-1730 -1732 0
-1731 -1732 0
-5 -865 1733 0
-5 -866 1734 0
-5 -867 1735 0
-5 -868 1736 0
-6 -865 1734 0
-6 -866 1735 0
-6 -867 1736 0
-6 -868 1733 0
-7 -865 1735 0
-7 -866 1736 0
-7 -867 1733 0
-7 -868 1734 0
-8 -865 1736 0
-8 -866 1733 0
-8 -867 1734 0
-8 -868 1735 0
-9 -577 1737 0
-9 -578 1738 0
-9 -579 1739 0
-9 -580 1740 0
-10 -577 1738 0
-10 -578 1739 0
-10 -579 1740 0
-10 -580 1737 0
-11 -577 1739 0
-11 -578 1740 0
-11 -579 1737 0
-11 -580 1738 0
-12 -577 1740 0
-12 -578 1737 0
-12 -579 1738 0
-12 -580 1739 0
-5 -869 1741 0
-5 -870 1742 0
-5 -871 1743 0
-5 -872 1744 0
-6 -869 1742 0
-6 -870 1743 0
-6 -871 1744 0
-6 -872 1741 0
-7 -869 1743 0
-7 -870 1744 0
-7 -871 1741 0
-7 -872 1742 0
-8 -869 1744 0
-8 -870 1741 0
-8 -871 1742 0
-8 -872 1743 0
-73 -89 1745 0
-73 -90 1746 0
-73 -91 1747 0
-73 -92 1748 0
-74 -89 1746 0
-74 -90 1747 0
-74 -91 1748 0
-74 -92 1745 0
-75 -89 1747 0
-75 -90 1748 0
-75 -91 1745 0
-75 -92 1746 0
-76 -89 1748 0
-76 -90 1745 0
-76 -91 1746 0
-76 -92 1747 0
-5 -873 1749 0
-5 -874 1750 0
-5 -875 1751 0
-5 -876 1752 0
-6 -873 1750 0
-6 -874 1751 0
-6 -875 1752 0
-6 -876 1749 0
-7 -873 1751 0
-7 -874 1752 0
-7 -875 1749 0
-7 -876 1750 0
-8 -873 1752 0
-8 -874 1749 0
-8 -875 1750 0
-8 -876 1751 0
1753 1754 1755 1756 0
-1753 -1754 0
-1753 -1755 0
-1753 -1756 0
-1754 -1755 0
-1754 -1756 0
-1755 -1756 0
-5 -877 1757 0
-5 -878 1758 0
-5 -879 1759 0
-5 -880 1760 0
-6 -877 1758 0
-6 -878 1759 0
-6 -879 1760 0
-6 -880 1757 0
-7 -877 1759 0
-7 -878 1760 0
-7 -879 1757 0
-7 -880 1758 0
-8 -877 1760 0
-8 -878 1757 0
-8 -879 1758 0
-8 -880 1759 0
-9 -585 1761 0
-9 -586 1762 0
-9 -587 1763 0
-9 -588 1764 0
-10 -585 1762 0
-10 -586 1763 0
-10 -587 1764 0
-10 -588 1761 0
-11 -585 1763 0
-11 -586 1764 0
-11 -587 1761 0
-11 -588 1762 0
-12 -585 1764 0
-12 -586 1761 0
-12 -587 1762 0
-12 -588 1763 0
-5 -881 1765 0
-5 -882 1766 0
-5 -883 1767 0
-5 -884 1768 0
-6 -881 1766 0
-6 -882 1767 0
-6 -883 1768 0
-6 -884 1765 0
-7 -881 1767 0
-7 -882 1768 0
-7 -883 1765 0
-7 -884 1766 0
-8 -881 1768 0
-8 -882 1765 0
-8 -883 1766 0
-8 -884 1767 0
1769 1770 1771 1772 0
-1769 -1770 0
-1769 -1771 0
-1769 -1772 0
-1770 -1771 0
-1770 -1772 0
-1771 -1772 0
-5 -885 1773 0
-5 -886 1774 0
-5 -887 1775 0
-5 -888 1776 0
-6 -885 1774 0
-6 -886 1775 0
-6 -887 1776 0
-6 -888 1773 0
-7 -885 1775 0
-7 -886 1776 0
-7 -887 1773 0
-7 -888 1774 0
-8 -885 1776 0
-8 -886 1773 0
-8 -887 1774 0
-8 -888 1775 0
-17 -353 1777 0
-17 -354 1778 0
-17 -355 1779 0
-17 -356 1780 0
-18 -353 1778 0
-18 -354 1779 0
-18 -355 1780 0
-18 -356 1777 0
-19 -353 1779 0
-19 -354 1780 0
-19 -355 1777 0
-19 -356 1778 0
-20 -353 1780 0
-20 -354 1777 0
-20 -355 1778 0
-20 -356 1779 0
-5 -889 1781 0
-5 -890 1782 0
-5 -891 1783 0
-5 -892 1784 0
-6 -889 1782 0
-6 -890 1783 0
-6 -891 1784 0
-6 -892 1781 0
-7 -889 1783 0
-7 -890 1784 0
-7 -891 1781 0
-7 -892 1782 0
-8 -889 1784 0
-8 -890 1781 0
-8 -891 1782 0
-8 -892 1783 0
-9 -593 1785 0
-9 -594 1786 0
-9 -595 1787 0
-9 -596 1788 0
-10 -593 1786 0
-10 -594 1787 0
-10 -595 1788 0
-10 -596 1785 0
-11 -593 1787 0
-11 -594 1788 0
-11 -595 1785 0
-11 -596 1786 0
-12 -593 1788 0
-12 -594 1785 0
-12 -595 1786 0
-12 -596 1787 0
-5 -893 1789 0
-5 -894 1790 0
-5 -895 1791 0
-5 -896 1792 0
-6 -893 1790 0
-6 -894 1791 0
-6 -895 1792 0
-6 -896 1789 0
-7 -893 1791 0
-7 -894 1792 0
-7 -895 1789 0
-7 -896 1790 0
-8 -893 1792 0
-8 -894 1789 0
-8 -895 1790 0
-8 -896 1791 0
1793 1794 1795 1796 0
-1793 -1794 0
-1793 -1795 0
-1793 -1796 0
-1794 -1795 0
-1794 -1796 0
-1795 -1796 0
-5 -897 1797 0
-5 -898 1798 0
-5 -899 1799 0
-5 -900 1800 0
-6 -897 1798 0
-6 -898 1799 0
-6 -899 1800 0
-6 -900 1797 0
-7 -897 1799 0
-7 -898 1800 0
-7 -899 1797 0
-7 -900 1798 0
-8 -897 1800 0
-8 -898 1797 0
-8 -899 1798 0
-8 -900 1799 0
-41 -161 1801 0
-41 -162 1802 0
-41 -163 1803 0
-41 -164 1804 0
-42 -161 1802 0
-42 -162 1803 0
-42 -163 1804 0
-42 -164 1801 0
-43 -161 1803 0
-43 -162 1804 0
-43 -163 1801 0
-43 -164 1802 0
-44 -161 1804 0
-44 -162 1801 0
-44 -163 1802 0
-44 -164 1803 0
-5 -901 1805 0
-5 -902 1806 0
-5 -903 1807 0
-5 -904 1808 0
-6 -901 1806 0
-6 -902 1807 0
-6 -903 1808 0
-6 -904 1805 0
-7 -901 1807 0
-7 -902 1808 0
-7 -903 1805 0
-7 -904 1806 0
-8 -901 1808 0
-8 -902 1805 0
-8 -903 1806 0
-8 -904 1807 0
-9 -601 1809 0
-9 -602 1810 0
-9 -603 1811 0
-9 -604 1812 0
-10 -601 1810 0
-10 -602 1811 0
-10 -603 1812 0
-10 -604 1809 0
-11 -601 1811 0
-11 -602 1812 0
-11 -603 1809 0
-11 -604 1810 0
-12 -601 1812 0
-12 -602 1809 0
-12 -603 1810 0
-12 -604 1811 0
-5 -905 1813 0
-5 -906 1814 0
-5 -907 1815 0
-5 -908 1816 0
-6 -905 1814 0
-6 -906 1815 0
-6 -907 1816 0
-6 -908 1813 0
-7 -905 1815 0
-7 -906 1816 0
-7 -907 1813 0
-7 -908 1814 0
-8 -905 1816 0
-8 -906 1813 0
-8 -907 1814 0
-8 -908 1815 0
-17 -361 1817 0
-17 -362 1818 0
-17 -363 1819 0
-17 -364 1820 0
-18 -361 1818 0
-18 -362 1819 0
-18 -363 1820 0
-18 -364 1817 0
-19 -361 1819 0
-19 -362 1820 0
-19 -363 1817 0
-19 -364 1818 0
-20 -361 1820 0
-20 -362 1817 0
-20 -363 1818 0
-20 -364 1819 0
-5 -909 1821 0
-5 -910 1822 0
-5 -911 1823 0
-5 -912 1824 0
-6 -909 1822 0
-6 -910 1823 0
-6 -911 1824 0
-6 -912 1821 0
-7 -909 1823 0
-7 -910 1824 0
-7 -911 1821 0
-7 -912 1822 0
-8 -909 1824 0
-8 -910 1821 0
-8 -911 1822 0
-8 -912 1823 0
1825 1826 1827 1828 0
-1825 -1826 0
-1825 -1827 0
-1825 -1828 0
-1826 -1827 0
-1826 -1828 0
-1827 -1828 0
-5 -913 1829 0
-5 -914 1830 0
-5 -915 1831 0
-5 -916 1832 0
-6 -913 1830 0
-6 -914 1831 0
-6 -915 1832 0
-6 -916 1829 0
-7 -913 1831 0
-7 -914 1832 0
-7 -915 1829 0
-7 -916 1830 0
-8 -913 1832 0
-8 -914 1829 0
-8 -915 1830 0
-8 -916 1831 0
-9 -609 1833 0
-9 -610 1834 0
-9 -611 1835 0
-9 -612 1836 0
-10 -609 1834 0
-10 -610 1835 0
-10 -611 1836 0
-10 -612 1833 0
-11 -609 1835 0
-11 -610 1836 0
-11 -611 1833 0
-11 -612 1834 0
-12 -609 1836 0
-12 -610 1833 0
-12 -611 1834 0
-12 -612 1835 0
-5 -917 1837 0
-5 -918 1838 0
-5 -919 1839 0
-5 -920 1840 0
-6 -917 1838 0
-6 -918 1839 0
-6 -919 1840 0
-6 -920 1837 0
-7 -917 1839 0
-7 -918 1840 0
-7 -919 1837 0
-7 -920 1838 0
-8 -917 1840 0
-8 -918 1837 0
-8 -919 1838 0
-8 -920 1839 0
1841 1842 1843 1844 0
-1841 -1842 0
-1841 -1843 0
-1841 -1844 0
-1842 -1843 0
-1842 -1844 0
-1843 -1844 0
-5 -921 1845 0
-5 -922 1846 0
-5 -923 1847 0
-5 -924 1848 0
-6 -921 1846 0
-6 -922 1847 0
-6 -923 1848 0
-6 -924 1845 0
-7 -921 1847 0
-7 -922 1848 0
-7 -923 1845 0
-7 -924 1846 0
-8 -921 1848 0
-8 -922 1845 0
-8 -923 1846 0
-8 -924 1847 0
1849 1850 1851 1852 0
-1849 -1850 0
-1849 -1851 0
-1849 -1852 0
-1850 -1851 0
-1850 -1852 0
-1851 -1852 0
-5 -925 1853 0
-5 -926 1854 0
-5 -927 1855 0
-5 -928 1856 0
-6 -925 1854 0
-6 -926 1855 0
-6 -927 1856 0
-6 -928 1853 0
-7 -925 1855 0
-7 -926 1856 0
-7 -927 1853 0
-7 -928 1854 0
-8 -925 1856 0
-8 -926 1853 0
-8 -927 1854 0
-8 -928 1855 0
-9 -617 1857 0
-9 -618 1858 0
-9 -619 1859 0
-9 -620 1860 0
-10 -617 1858 0
-10 -618 1859 0
-10 -619 1860 0
-10 -620 1857 0
-11 -617 1859 0
-11 -618 1860 0
-11 -619 1857 0
-11 -620 1858 0
-12 -617 1860 0
-12 -618 1857 0
-12 -619 1858 0
-12 -620 1859 0
-5 -929 1861 0
-5 -930 1862 0
-5 -931 1863 0
-5 -932 1864 0
-6 -929 1862 0
-6 -930 1863 0
-6 -931 1864 0
-6 -932 1861 0
-7 -929 1863 0
-7 -930 1864 0
-7 -931 1861 0
-7 -932 1862 0
-8 -929 1864 0
-8 -930 1861 0
-8 -931 1862 0
-8 -932 1863 0
1865 1866 1867 1868 0
-1865 -1866 0
-1865 -1867 0
-1865 -1868 0
-1866 -1867 0
-1866 -1868 0
-1867 -1868 0
-5 -933 1869 0
-5 -934 1870 0
-5 -935 1871 0
-5 -936 1872 0
-6 -933 1870 0
-6 -934 1871 0
-6 -935 1872 0
-6 -936 1869 0
-7 -933 1871 0
-7 -934 1872 0
-7 -935 1869 0
-7 -936 1870 0
-8 -933 1872 0
-8 -934 1869 0
-8 -935 1870 0
-8 -936 1871 0
-25 -265 1873 0
-25 -266 1874 0
-25 -267 1875 0
-25 -268 1876 0
-26 -265 1874 0
-26 -266 1875 0
-26 -267 1876 0
-26 -268 1873 0
-27 -265 1875 0
-27 -266 1876 0
-27 -267 1873 0
-27 -268 1874 0
-28 -265 1876 0
-28 -266 1873 0
-28 -267 1874 0
-28 -268 1875 0
-5 -937 1877 0
-5 -938 1878 0
-5 -939 1879 0
-5 -940 1880 0
-6 -937 1878 0
-6 -938 1879 0
-6 -939 1880 0
-6 -940 1877 0
-7 -937 1879 0
-7 -938 1880 0
-7 -939 1877 0
-7 -940 1878 0
-8 -937 1880 0
-8 -938 1877 0
-8 -939 1878 0
-8 -940 1879 0
-9 -625 1881 0
-9 -626 1882 0
-9 -627 1883 0
-9 -628 1884 0
-10 -625 1882 0
-10 -626 1883 0
-10 -627 1884 0
-10 -628 1881 0
-11 -625 1883 0
-11 -626 1884 0
-11 -627 1881 0
-11 -628 1882 0
-12 -625 1884 0
-12 -626 1881 0
-12 -627 1882 0
-12 -628 1883 0
-5 -941 1885 0
-5 -942 1886 0
-5 -943 1887 0
-5 -944 1888 0
-6 -941 1886 0
-6 -942 1887 0
-6 -943 1888 0
-6 -944 1885 0
-7 -941 1887 0
-7 -942 1888 0
-7 -943 1885 0
-7 -944 1886 0
-8 -941 1888 0
-8 -942 1885 0
-8 -943 1886 0
-8 -944 1887 0
-41 -169 1889 0
-41 -170 1890 0
-41 -171 1891 0
-41 -172 1892 0
-42 -169 1890 0
-42 -170 1891 0
-42 -171 1892 0
-42 -172 1889 0
-43 -169 1891 0
-43 -170 1892 0
-43 -171 1889 0
-43 -172 1890 0
-44 -169 1892 0
-44 -170 1889 0
-44 -171 1890 0
-44 -172 1891 0
-5 -945 1893 0
-5 -946 1894 0
-5 -947 1895 0
-5 -948 1896 0
-6 -945 1894 0
-6 -946 1895 0
-6 -947 1896 0
-6 -948 1893 0
-7 -945 1895 0
-7 -946 1896 0
-7 -947 1893 0
-7 -948 1894 0
-8 -945 1896 0
-8 -946 1893 0
-8 -947 1894 0
-8 -948 1895 0
-17 -377 1897 0
-17 -378 1898 0
-17 -379 1899 0
-17 -380 1900 0
-18 -377 1898 0
-18 -378 1899 0
-18 -379 1900 0
-18 -380 1897 0
-19 -377 1899 0
-19 -378 1900 0
-19 -379 1897 0
-19 -380 1898 0
-20 -377 1900 0
-20 -378 1897 0
-20 -379 1898 0
-20 -380 1899 0
-5 -949 1901 0
-5 -950 1902 0
-5 -951 1903 0
-5 -952 1904 0
-6 -949 1902 0
-6 -950 1903 0
-6 -951 1904 0
-6 -952 1901 0
-7 -949 1903 0
-7 -950 1904 0
-7 -951 1901 0
-7 -952 1902 0
-8 -949 1904 0
-8 -950 1901 0
-8 -951 1902 0
-8 -952 1903 0
-9 -633 1905 0
-9 -634 1906 0
-9 -635 1907 0
-9 -636 1908 0
-10 -633 1906 0
-10 -634 1907 0
-10 -635 1908 0
-10 -636 1905 0
-11 -633 1907 0
-11 -634 1908 0
-11 -635 1905 0
-11 -636 1906 0
-12 -633 1908 0
-12 -634 1905 0
-12 -635 1906 0
-12 -636 1907 0
-5 -953 1909 0
-5 -954 1910 0
-5 -955 1911 0
-5 -956 1912 0
-6 -953 1910 0
-6 -954 1911 0
-6 -955 1912 0
-6 -956 1909 0
-7 -953 1911 0
-7 -954 1912 0
-7 -955 1909 0
-7 -956 1910 0
-8 -953 1912 0
-8 -954 1909 0
-8 -955 1910 0
-8 -956 1911 0
1913 1914 1915 1916 0
-1913 -1914 0
-1913 -1915 0
-1913 -1916 0
-1914 -1915 0
-1914 -1916 0
-1915 -1916 0
-5 -957 1917 0
-5 -958 1918 0
-5 -959 1919 0
-5 -960 1920 0
-6 -957 1918 0
-6 -958 1919 0
-6 -959 1920 0
-6 -960 1917 0
-7 -957 1919 0
-7 -958 1920 0
-7 -959 1917 0
-7 -960 1918 0
-8 -957 1920 0
-8 -958 1917 0
-8 -959 1918 0
-8 -960 1919 0
-49 -145 1921 0
-49 -146 1922 0
-49 -147 1923 0
-49 -148 1924 0
-50 -145 1922 0
-50 -146 1923 0
-50 -147 1924 0
-50 -148 1921 0
-51 -145 1923 0
-51 -146 1924 0
-51 -147 1921 0
-51 -148 1922 0
-52 -145 1924 0
-52 -146 1921 0
-52 -147 1922 0
-52 -148 1923 0
-5 -961 1925 0
-5 -962 1926 0
-5 -963 1927 0
-5 -964 1928 0
-6 -961 1926 0
-6 -962 1927 0
-6 -963 1928 0
-6 -964 1925 0
-7 -961 1927 0
-7 -962 1928 0
-7 -963 1925 0
-7 -964 1926 0
-8 -961 1928 0
-8 -962 1925 0
-8 -963 1926 0
-8 -964 1927 0
-9 -641 1929 0
-9 -642 1930 0
-9 -643 1931 0
-9 -644 1932 0
-10 -641 1930 0
-10 -642 1931 0
-10 -643 1932 0
-10 -644 1929 0
-11 -641 1931 0
-11 -642 1932 0
-11 -643 1929 0
-11 -644 1930 0
-12 -641 1932 0
-12 -642 1929 0
-12 -643 1930 0
-12 -644 1931 0
-5 -965 1933 0
-5 -966 1934 0
-5 -967 1935 0
-5 -968 1936 0
-6 -965 1934 0
-6 -966 1935 0
-6 -967 1936 0
-6 -968 1933 0
-7 -965 1935 0
-7 -966 1936 0
-7 -967 1933 0
-7 -968 1934 0
-8 -965 1936 0
-8 -966 1933 0
-8 -967 1934 0
-8 -968 1935 0
-17 -385 1937 0
-17 -386 1938 0
-17 -387 1939 0
-17 -388 1940 0
-18 -385 1938 0
-18 -386 1939 0
-18 -387 1940 0
-18 -388 1937 0
-19 -385 1939 0
-19 -386 1940 0
-19 -387 1937 0
-19 -388 1938 0
-20 -385 1940 0
-20 -386 1937 0
-20 -387 1938 0
-20 -388 1939 0
-5 -969 1941 0
-5 -970 1942 0
-5 -971 1943 0
-5 -972 1944 0
-6 -969 1942 0
-6 -970 1943 0
-6 -971 1944 0
-6 -972 1941 0
-7 -969 1943 0
-7 -970 1944 0
-7 -971 1941 0
-7 -972 1942 0
-8 -969 1944 0
-8 -970 1941 0
-8 -971 1942 0
-8 -972 1943 0
1945 1946 1947 1948 0
-1945 -1946 0
-1945 -1947 0
-1945 -1948 0
-1946 -1947 0
-1946 -1948 0
-1947 -1948 0
-5 -973 1949 0
-5 -974 1950 0
-5 -975 1951 0
-5 -976 1952 0
-6 -973 1950 0
-6 -974 1951 0
-6 -975 1952 0
-6 -976 1949 0
-7 -973 1951 0
-7 -974 1952 0
-7 -975 1949 0
-7 -976 1950 0
-8 -973 1952 0
-8 -974 1949 0
-8 -975 1950 0
-8 -976 1951 0
-9 -649 1953 0
-9 -650 1954 0
-9 -651 1955 0
-9 -652 1956 0
-10 -649 1954 0
-10 -650 1955 0
-10 -651 1956 0
-10 -652 1953 0
-11 -649 1955 0
-11 -650 1956 0
-11 -651 1953 0
-11 -652 1954 0
-12 -649 1956 0
-12 -650 1953 0
-12 -651 1954 0
-12 -652 1955 0
-5 -977 1957 0
-5 -978 1958 0
-5 -979 1959 0
-5 -980 1960 0
-6 -977 1958 0
-6 -978 1959 0
-6 -979 1960 0
-6 -980 1957 0
-7 -977 1959 0
-7 -978 1960 0
-7 -979 1957 0
-7 -980 1958 0
-8 -977 1960 0
-8 -978 1957 0
-8 -979 1958 0
-8 -980 1959 0
1961 1962 1963 1964 0
-1961 -1962 0
-1961 -1963 0
-1961 -1964 0
-1962 -1963 0
-1962 -1964 0
-1963 -1964 0
-5 -981 1965 0
-5 -982 1966 0
-5 -983 1967 0
-5 -984 1968 0
-6 -981 1966 0
-6 -982 1967 0
-6 -983 1968 0
-6 -984 1965 0
-7 -981 1967 0
-7 -982 1968 0
-7 -983 1965 0
-7 -984 1966 0
-8 -981 1968 0
-8 -982 1965 0
-8 -983 1966 0
-8 -984 1967 0
-65 -113 1969 0
-65 -114 1970 0
-65 -115 1971 0
-65 -116 1972 0
-66 -113 1970 0
-66 -114 1971 0
-66 -115 1972 0
-66 -116 1969 0
-67 -113 1971 0
-67 -114 1972 0
-67 -115 1969 0
-67 -116 1970 0
-68 -113 1972 0
-68 -114 1969 0
-68 -115 1970 0
-68 -116 1971 0
-5 -985 1973 0
-5 -986 1974 0
-5 -987 1975 0
-5 -988 1976 0
-6 -985 1974 0
-6 -986 1975 0
-6 -987 1976 0
-6 -988 1973 0
-7 -985 1975 0
-7 -986 1976 0
-7 -987 1973 0
-7 -988 1974 0
-8 -985 1976 0
-8 -986 1973 0
-8 -987 1974 0
-8 -988 1975 0
-9 -657 1977 0
-9 -658 1978 0
-9 -659 1979 0
-9 -660 1980 0
-10 -657 1978 0
-10 -658 1979 0
-10 -659 1980 0
-10 -660 1977 0
-11 -657 1979 0
-11 -658 1980 0
-11 -659 1977 0
-11 -660 1978 0
-12 -657 1980 0
-12 -658 1977 0
-12 -659 1978 0
-12 -660 1979 0
-5 -989 1981 0
-5 -990 1982 0
-5 -991 1983 0
-5 -992 1984 0
-6 -989 1982 0
-6 -990 1983 0
-6 -991 1984 0
-6 -992 1981 0
-7 -989 1983 0
-7 -990 1984 0
-7 -991 1981 0
-7 -992 1982 0
-8 -989 1984 0
-8 -990 1981 0
-8 -991 1982 0
-8 -992 1983 0
-25 -281 1985 0
-25 -282 1986 0
-25 -283 1987 0
-25 -284 1988 0
-26 -281 1986 0
-26 -282 1987 0
-26 -283 1988 0
-26 -284 1985 0
-27 -281 1987 0
-27 -282 1988 0
-27 -283 1985 0
-27 -284 1986 0
-28 -281 1988 0
-28 -282 1985 0
-28 -283 1986 0
-28 -284 1987 0
-5 -993 1989 0
-5 -994 1990 0
-5 -995 1991 0
-5 -996 1992 0
-6 -993 1990 0
-6 -994 1991 0
-6 -995 1992 0
-6 -996 1989 0
-7 -993 1991 0
-7 -994 1992 0
-7 -995 1989 0
-7 -996 1990 0
-8 -993 1992 0
-8 -994 1989 0
-8 -995 1990 0
-8 -996 1991 0
1993 1994 1995 1996 0
-1993 -1994 0
-1993 -1995 0
-1993 -1996 0
-1994 -1995 0
-1994 -1996 0
-1995 -1996 0
-5 -997 1997 0
-5 -998 1998 0
-5 -999 1999 0
-5 -1000 2000 0
-6 -997 1998 0
-6 -998 1999 0
-6 -999 2000 0
-6 -1000 1997 0
-7 -997 1999 0
-7 -998 2000 0
-7 -999 1997 0
-7 -1000 1998 0
-8 -997 2000 0
-8 -998 1997 0
-8 -999 1998 0
-8 -1000 1999 0
-9 -665 2001 0
-9 -666 2002 0
-9 -667 2003 0
-9 -668 2004 0
-10 -665 2002 0
-10 -666 2003 0
-10 -667 2004 0
-10 -668 2001 0
-11 -665 2003 0
-11 -666 2004 0
-11 -667 2001 0
-11 -668 2002 0
-12 -665 2004 0
-12 -666 2001 0
-12 -667 2002 0
-12 -668 2003 0
-5 -1001 2005 0
-5 -1002 2006 0
-5 -1003 2007 0
-5 -1004 2008 0
-6 -1001 2006 0
-6 -1002 2007 0
-6 -1003 2008 0
-6 -1004 2005 0
-7 -1001 2007 0
-7 -1002 2008 0
-7 -1003 2005 0
-7 -1004 2006 0
-8 -1001 2008 0
-8 -1002 2005 0
-8 -1003 2006 0
-8 -1004 2007 0
2009 2010 2011 2012 0
-2009 -2010 0
-2009 -2011 0
-2009 -2012 0
-2010 -2011 0
-2010 -2012 0
-2011 -2012 0
-5 -1005 2013 0
-5 -1006 2014 0
-5 -1007 2015 0
-5 -1008 2016 0
-6 -1005 2014 0
-6 -1006 2015 0
-6 -1007 2016 0
-6 -1008 2013 0
-7 -1005 2015 0
-7 -1006 2016 0
-7 -1007 2013 0
-7 -1008 2014 0
-8 -1005 2016 0
-8 -1006 2013 0
-8 -1007 2014 0
-8 -1008 2015 0
-17 -401 2017 0
-17 -402 2018 0
-17 -403 2019 0
-17 -404 2020 0
-18 -401 2018 0
-18 -402 2019 0
-18 -403 2020 0
-18 -404 2017 0
-19 -401 2019 0
-19 -402 2020 0
-19 -403 2017 0
-19 -404 2018 0
-20 -401 2020 0
-20 -402 2017 0
-20 -403 2018 0
-20 -404 2019 0
-5 -1009 2021 0
-5 -1010 2022 0
-5 -1011 2023 0
-5 -1012 2024 0
-6 -1009 2022 0
-6 -1010 2023 0
-6 -1011 2024 0
-6 -1012 2021 0
-7 -1009 2023 0
-7 -1010 2024 0
-7 -1011 2021 0
-7 -1012 2022 0
-8 -1009 2024 0
-8 -1010 2021 0
-8 -1011 2022 0
-8 -1012 2023 0
-9 -673 2025 0
-9 -674 2026 0
-9 -675 2027 0
-9 -676 2028 0
-10 -673 2026 0
-10 -674 2027 0
-10 -675 2028 0
-10 -676 2025 0
-11 -673 2027 0
-11 -674 2028 0
-11 -675 2025 0
-11 -676 2026 0
-12 -673 2028 0
-12 -674 2025 0
-12 -675 2026 0
-12 -676 2027 0
-5 -1013 2029 0
-5 -1014 2030 0
-5 -1015 2031 0
-5 -1016 2032 0
-6 -1013 2030 0
-6 -1014 2031 0
-6 -1015 2032 0
-6 -1016 2029 0
-7 -1013 2031 0
-7 -1014 2032 0
-7 -1015 2029 0
-7 -1016 2030 0
-8 -1013 2032 0
-8 -1014 2029 0
-8 -1015 2030 0
-8 -1016 2031 0
2033 2034 2035 2036 0
-2033 -2034 0
-2033 -2035 0
-2033 -2036 0
-2034 -2035 0
-2034 -2036 0
-2035 -2036 0
-5 -1017 2037 0
-5 -1018 2038 0
-5 -1019 2039 0
-5 -1020 2040 0
-6 -1017 2038 0
-6 -1018 2039 0
-6 -1019 2040 0
-6 -1020 2037 0
-7 -1017 2039 0
-7 -1018 2040 0
-7 -1019 2037 0
-7 -1020 2038 0
-8 -1017 2040 0
-8 -1018 2037 0
-8 -1019 2038 0
-8 -1020 2039 0
-25 -289 2041 0
-25 -290 2042 0
-25 -291 2043 0
-25 -292 2044 0
-26 -289 2042 0
-26 -290 2043 0
-26 -291 2044 0
-26 -292 2041 0
-27 -289 2043 0
-27 -290 2044 0
-27 -291 2041 0
-27 -292 2042 0
-28 -289 2044 0
-28 -290 2041 0
-28 -291 2042 0
-28 -292 2043 0
-5 -1021 2045 0
-5 -1022 2046 0
-5 -1023 2047 0
-5 -1024 2048 0
-6 -1021 2046 0
-6 -1022 2047 0
-6 -1023 2048 0
-6 -1024 2045 0
-7 -1021 2047 0
-7 -1022 2048 0
-7 -1023 2045 0
-7 -1024 2046 0
-8 -1021 2048 0
-8 -1022 2045 0
-8 -1023 2046 0
-8 -1024 2047 0
-9 -681 2049 0
-9 -682 2050 0
-9 -683 2051 0
-9 -684 2052 0
-10 -681 2050 0
-10 -682 2051 0
-10 -683 2052 0
-10 -684 2049 0
-11 -681 2051 0
-11 -682 2052 0
-11 -683 2049 0
-11 -684 2050 0
-12 -681 2052 0
-12 -682 2049 0
-12 -683 2050 0
-12 -684 2051 0
-5 -1025 2053 0
-5 -1026 2054 0
-5 -1027 2055 0
-5 -1028 2056 0
-6 -1025 2054 0
-6 -1026 2055 0
-6 -1027 2056 0
-6 -1028 2053 0
-7 -1025 2055 0
-7 -1026 2056 0
-7 -1027 2053 0
-7 -1028 2054 0
-8 -1025 2056 0
-8 -1026 2053 0
-8 -1027 2054 0
-8 -1028 2055 0
-17 -409 2057 0
-17 -410 2058 0
-17 -411 2059 0
-17 -412 2060 0
-18 -409 2058 0
-18 -410 2059 0
-18 -411 2060 0
-18 -412 2057 0
-19 -409 2059 0
-19 -410 2060 0
-19 -411 2057 0
-19 -412 2058 0
-20 -409 2060 0
-20 -410 2057 0
-20 -411 2058 0
-20 -412 2059 0
-5 -1029 2061 0
-5 -1030 2062 0
-5 -1031 2063 0
-5 -1032 2064 0
-6 -1029 2062 0
-6 -1030 2063 0
-6 -1031 2064 0
-6 -1032 2061 0
-7 -1029 2063 0
-7 -1030 2064 0
-7 -1031 2061 0
-7 -1032 2062 0
-8 -1029 2064 0
-8 -1030 2061 0
-8 -1031 2062 0
-8 -1032 2063 0
-41 -185 2065 0
-41 -186 2066 0
-41 -187 2067 0
-41 -188 2068 0
-42 -185 2066 0
-42 -186 2067 0
-42 -187 2068 0
-42 -188 2065 0
-43 -185 2067 0
-43 -186 2068 0
-43 -187 2065 0
-43 -188 2066 0
-44 -185 2068 0
-44 -186 2065 0
-44 -187 2066 0
-44 -188 2067 0
-5 -1033 2069 0
-5 -1034 2070 0
-5 -1035 2071 0
-5 -1036 2072 0
-6 -1033 2070 0
-6 -1034 2071 0
-6 -1035 2072 0
-6 -1036 2069 0
-7 -1033 2071 0
-7 -1034 2072 0
-7 -1035 2069 0
-7 -1036 2070 0
-8 -1033 2072 0
-8 -1034 2069 0
-8 -1035 2070 0
-8 -1036 2071 0
-9 -689 2073 0
-9 -690 2074 0
-9 -691 2075 0
-9 -692 2076 0
-10 -689 2074 0
-10 -690 2075 0
-10 -691 2076 0
-10 -692 2073 0
-11 -689 2075 0
-11 -690 2076 0
-11 -691 2073 0
-11 -692 2074 0
-12 -689 2076 0
-12 -690 2073 0
-12 -691 2074 0
-12 -692 2075 0
-5 -1037 2077 0
-5 -1038 2078 0
-5 -1039 2079 0
-5 -1040 2080 0
-6 -1037 2078 0
-6 -1038 2079 0
-6 -1039 2080 0
-6 -1040 2077 0
-7 -1037 2079 0
-7 -1038 2080 0
-7 -1039 2077 0
-7 -1040 2078 0
-8 -1037 2080 0
-8 -1038 2077 0
-8 -1039 2078 0
-8 -1040 2079 0
2081 2082 2083 2084 0
-2081 -2082 0
-2081 -2083 0
-2081 -2084 0
-2082 -2083 0
-2082 -2084 0
-2083 -2084 0
-5 -1041 2085 0
-5 -1042 2086 0
-5 -1043 2087 0
-5 -1044 2088 0
-6 -1041 2086 0
-6 -1042 2087 0
-6 -1043 2088 0
-6 -1044 2085 0
-7 -1041 2087 0
-7 -1042 2088 0
-7 -1043 2085 0
-7 -1044 2086 0
-8 -1041 2088 0
-8 -1042 2085 0
-8 -1043 2086 0
-8 -1044 2087 0
2089 2090 2091 2092 0
-2089 -2090 0
-2089 -2091 0
-2089 -2092 0
-2090 -2091 0
-2090 -2092 0
-2091 -2092 0
-5 -1045 2093 0
-5 -1046 2094 0
-5 -1047 2095 0
-5 -1048 2096 0
-6 -1045 2094 0
-6 -1046 2095 0
-6 -1047 2096 0
-6 -1048 2093 0
-7 -1045 2095 0
-7 -1046 2096 0
-7 -1047 2093 0
-7 -1048 2094 0
-8 -1045 2096 0
-8 -1046 2093 0
-8 -1047 2094 0
-8 -1048 2095 0
-9 -697 2097 0
-9 -698 2098 0
-9 -699 2099 0
-9 -700 2100 0
-10 -697 2098 0
-10 -698 2099 0
-10 -699 2100 0
-10 -700 2097 0
-11 -697 2099 0
-11 -698 2100 0
-11 -699 2097 0
-11 -700 2098 0
-12 -697 2100 0
-12 -698 2097 0
-12 -699 2098 0
-12 -700 2099 0
-5 -1049 2101 0
-5 -1050 2102 0
-5 -1051 2103 0
-5 -1052 2104 0
-6 -1049 2102 0
-6 -1050 2103 0
-6 -1051 2104 0
-6 -1052 2101 0
-7 -1049 2103 0
-7 -1050 2104 0
-7 -1051 2101 0
-7 -1052 2102 0
-8 -1049 2104 0
-8 -1050 2101 0
-8 -1051 2102 0
-8 -1052 2103 0
-65 -121 2105 0
-65 -122 2106 0
-65 -123 2107 0
-65 -124 2108 0
-66 -121 2106 0
-66 -122 2107 0
-66 -123 2108 0
-66 -124 2105 0
-67 -121 2107 0
-67 -122 2108 0
-67 -123 2105 0
-67 -124 2106 0
-68 -121 2108 0
-68 -122 2105 0
-68 -123 2106 0
-68 -124 2107 0
-5 -1053 2109 0
-5 -1054 2110 0
-5 -1055 2111 0
-5 -1056 2112 0
-6 -1053 2110 0
-6 -1054 2111 0
-6 -1055 2112 0
-6 -1056 2109 0
-7 -1053 2111 0
-7 -1054 2112 0
-7 -1055 2109 0
-7 -1056 2110 0
-8 -1053 2112 0
-8 -1054 2109 0
-8 -1055 2110 0
-8 -1056 2111 0
-89 -89 2113 0
-89 -90 2114 0
-89 -91 2115 0
-89 -92 2116 0
-90 -89 2114 0
-90 -90 2115 0
-90 -91 2116 0
-90 -92 2113 0
-91 -89 2115 0
-91 -90 2116 0
-91 -91 2113 0
-91 -92 2114 0
-92 -89 2116 0
-92 -90 2113 0
-92 -91 2114 0
-92 -92 2115 0
-5 -1057 2117 0
-5 -1058 2118 0
-5 -1059 2119 0
-5 -1060 2120 0
-6 -1057 2118 0
-6 -1058 2119 0
-6 -1059 2120 0
-6 -1060 2117 0
-7 -1057 2119 0
-7 -1058 2120 0
-7 -1059 2117 0
-7 -1060 2118 0
-8 -1057 2120 0
-8 -1058 2117 0
-8 -1059 2118 0
-8 -1060 2119 0
-9 -705 2121 0
-9 -706 2122 0
-9 -707 2123 0
-9 -708 2124 0
-10 -705 2122 0
-10 -706 2123 0
-10 -707 2124 0
-10 -708 2121 0
-11 -705 2123 0
-11 -706 2124 0
-11 -707 2121 0
-11 -708 2122 0
-12 -705 2124 0
-12 -706 2121 0
-12 -707 2122 0
-12 -708 2123 0
-5 -1061 2125 0
-5 -1062 2126 0
-5 -1063 2127 0
-5 -1064 2128 0
-6 -1061 2126 0
-6 -1062 2127 0
-6 -1063 2128 0
-6 -1064 2125 0
-7 -1061 2127 0
-7 -1062 2128 0
-7 -1063 2125 0
-7 -1064 2126 0
-8 -1061 2128 0
-8 -1062 2125 0
-8 -1063 2126 0
-8 -1064 2127 0
-49 -161 2129 0
-49 -162 2130 0
-49 -163 2131 0
-49 -164 2132 0
-50 -161 2130 0
-50 -162 2131 0
-50 -163 2132 0
-50 -164 2129 0
-51 -161 2131 0
-51 -162 2132 0
-51 -163 2129 0
-51 -164 2130 0
-52 -161 2132 0
-52 -162 2129 0
-52 -163 2130 0
-52 -164 2131 0
-5 -1065 2133 0
-5 -1066 2134 0
-5 -1067 2135 0
-5 -1068 2136 0
-6 -1065 2134 0
-6 -1066 2135 0
-6 -1067 2136 0
-6 -1068 2133 0
-7 -1065 2135 0
-7 -1066 2136 0
-7 -1067 2133 0
-7 -1068 2134 0
-8 -1065 2136 0
-8 -1066 2133 0
-8 -1067 2134 0
-8 -1068 2135 0
-17 -425 2137 0
-17 -426 2138 0
-17 -427 2139 0
-17 -428 2140 0
-18 -425 2138 0
-18 -426 2139 0
-18 -427 2140 0
-18 -428 2137 0
-19 -425 2139 0
-19 -426 2140 0
-19 -427 2137 0
-19 -428 2138 0
-20 -425 2140 0
-20 -426 2137 0
-20 -427 2138 0
-20 -428 2139 0
-5 -1069 2141 0
-5 -1070 2142 0
-5 -1071 2143 0
-5 -1072 2144 0
-6 -1069 2142 0
-6 -1070 2143 0
-6 -1071 2144 0
-6 -1072 2141 0
-7 -1069 2143 0
-7 -1070 2144 0
-7 -1071 2141 0
-7 -1072 2142 0
-8 -1069 2144 0
-8 -1070 2141 0
-8 -1071 2142 0
-8 -1072 2143 0
-9 -713 2145 0
-9 -714 2146 0
-9 -715 2147 0
-9 -716 2148 0
-10 -713 2146 0
-10 -714 2147 0
-10 -715 2148 0
-10 -716 2145 0
-11 -713 2147 0
-11 -714 2148 0
-11 -715 2145 0
-11 -716 2146 0
-12 -713 2148 0
-12 -714 2145 0
-12 -715 2146 0
-12 -716 2147 0
-5 -1073 2149 0
-5 -1074 2150 0
-5 -1075 2151 0
-5 -1076 2152 0
-6 -1073 2150 0
-6 -1074 2151 0
-6 -1075 2152 0
-6 -1076 2149 0
-7 -1073 2151 0
-7 -1074 2152 0
-7 -1075 2149 0
-7 -1076 2150 0
-8 -1073 2152 0
-8 -1074 2149 0
-8 -1075 2150 0
-8 -1076 2151 0
-25 -305 2153 0
-25 -306 2154 0
-25 -307 2155 0
-25 -308 2156 0
-26 -305 2154 0
-26 -306 2155 0
-26 -307 2156 0
-26 -308 2153 0
-27 -305 2155 0
-27 -306 2156 0
-27 -307 2153 0
-27 -308 2154 0
-28 -305 2156 0
-28 -306 2153 0
-28 -307 2154 0
-28 -308 2155 0
-5 -1077 2157 0
-5 -1078 2158 0
-5 -1079 2159 0
-5 -1080 2160 0
-6 -1077 2158 0
-6 -1078 2159 0
-6 -1079 2160 0
-6 -1080 2157 0
-7 -1077 2159 0
-7 -1078 2160 0
-7 -1079 2157 0
-7 -1080 2158 0
-8 -1077 2160 0
-8 -1078 2157 0
-8 -1079 2158 0
-8 -1080 2159 0
2161 2162 2163 2164 0
-2161 -2162 0
-2161 -2163 0
-2161 -2164 0
-2162 -2163 0
-2162 -2164 0
-2163 -2164 0
-5 -1081 2165 0
-5 -1082 2166 0
-5 -1083 2167 0
-5 -1084 2168 0
-6 -1081 2166 0
-6 -1082 2167 0
-6 -1083 2168 0
-6 -1084 2165 0
-7 -1081 2167 0
-7 -1082 2168 0
-7 -1083 2165 0
-7 -1084 2166 0
-8 -1081 2168 0
-8 -1082 2165 0
-8 -1083 2166 0
-8 -1084 2167 0
-9 -721 2169 0
-9 -722 2170 0
-9 -723 2171 0
-9 -724 2172 0
-10 -721 2170 0
-10 -722 2171 0
-10 -723 2172 0
-10 -724 2169 0
-11 -721 2171 0
-11 -722 2172 0
-11 -723 2169 0
-11 -724 2170 0
-12 -721 2172 0
-12 -722 2169 0
-12 -723 2170 0
-12 -724 2171 0
-5 -1085 2173 0
-5 -1086 2174 0
-5 -1087 2175 0
-5 -1088 2176 0
-6 -1085 2174 0
-6 -1086 2175 0
-6 -1087 2176 0
-6 -1088 2173 0
-7 -1085 2175 0
-7 -1086 2176 0
-7 -1087 2173 0
-7 -1088 2174 0
-8 -1085 2176 0
-8 -1086 2173 0
-8 -1087 2174 0
-8 -1088 2175 0
-17 -433 2177 0
-17 -434 2178 0
-17 -435 2179 0
-17 -436 2180 0
-18 -433 2178 0
-18 -434 2179 0
-18 -435 2180 0
-18 -436 2177 0
-19 -433 2179 0
-19 -434 2180 0
-19 -435 2177 0
-19 -436 2178 0
-20 -433 2180 0
-20 -434 2177 0
-20 -435 2178 0
-20 -436 2179 0
-5 -1089 2181 0
-5 -1090 2182 0
-5 -1091 2183 0
-5 -1092 2184 0
-6 -1089 2182 0
-6 -1090 2183 0
-6 -1091 2184 0
-6 -1092 2181 0
-7 -1089 2183 0
-7 -1090 2184 0
-7 -1091 2181 0
-7 -1092 2182 0
-8 -1089 2184 0
-8 -1090 2181 0
-8 -1091 2182 0
-8 -1092 2183 0
2185 2186 2187 2188 0
-2185 -2186 0
-2185 -2187 0
-2185 -2188 0
-2186 -2187 0
-2186 -2188 0
-2187 -2188 0
-5 -1093 2189 0
-5 -1094 2190 0
-5 -1095 2191 0
-5 -1096 2192 0
-6 -1093 2190 0
-6 -1094 2191 0
-6 -1095 2192 0
-6 -1096 2189 0
-7 -1093 2191 0
-7 -1094 2192 0
-7 -1095 2189 0
-7 -1096 2190 0
-8 -1093 2192 0
-8 -1094 2189 0
-8 -1095 2190 0
-8 -1096 2191 0
-9 -729 2193 0
-9 -730 2194 0
-9 -731 2195 0
-9 -732 2196 0
-10 -729 2194 0
-10 -730 2195 0
-10 -731 2196 0
-10 -732 2193 0
-11 -729 2195 0
-11 -730 2196 0
-11 -731 2193 0
-11 -732 2194 0
-12 -729 2196 0
-12 -730 2193 0
-12 -731 2194 0
-12 -732 2195 0
-5 -1097 2197 0
-5 -1098 2198 0
-5 -1099 2199 0
-5 -1100 2200 0
-6 -1097 2198 0
-6 -1098 2199 0
-6 -1099 2200 0
-6 -1100 2197 0
-7 -1097 2199 0
-7 -1098 2200 0
-7 -1099 2197 0
-7 -1100 2198 0
-8 -1097 2200 0
-8 -1098 2197 0
-8 -1099 2198 0
-8 -1100 2199 0
-73 -113 2201 0
-73 -114 2202 0
-73 -115 2203 0
-73 -116 2204 0
-74 -113 2202 0
-74 -114 2203 0
-74 -115 2204 0
-74 -116 2201 0
-75 -113 2203 0
-75 -114 2204 0
-75 -115 2201 0
-75 -116 2202 0
-76 -113 2204 0
-76 -114 2201 0
-76 -115 2202 0
-76 -116 2203 0
-5 -1101 2205 0
-5 -1102 2206 0
-5 -1103 2207 0
-5 -1104 2208 0
-6 -1101 2206 0
-6 -1102 2207 0
-6 -1103 2208 0
-6 -1104 2205 0
-7 -1101 2207 0
-7 -1102 2208 0
-7 -1103 2205 0
-7 -1104 2206 0
-8 -1101 2208 0
-8 -1102 2205 0
-8 -1103 2206 0
-8 -1104 2207 0
-25 -313 2209 0
-25 -314 2210 0
-25 -315 2211 0
-25 -316 2212 0
-26 -313 2210 0
-26 -314 2211 0
-26 -315 2212 0
-26 -316 2209 0
-27 -313 2211 0
-27 -314 2212 0
-27 -315 2209 0
-27 -316 2210 0
-28 -313 2212 0
-28 -314 2209 0
-28 -315 2210 0
-28 -316 2211 0
-5 -1105 2213 0
-5 -1106 2214 0
-5 -1107 2215 0
-5 -1108 2216 0
-6 -1105 2214 0
-6 -1106 2215 0
-6 -1107 2216 0
-6 -1108 2213 0
-7 -1105 2215 0
-7 -1106 2216 0
-7 -1107 2213 0
-7 -1108 2214 0
-8 -1105 2216 0
-8 -1106 2213 0
-8 -1107 2214 0
-8 -1108 2215 0
-9 -737 2217 0
-9 -738 2218 0
-9 -739 2219 0
-9 -740 2220 0
-10 -737 2218 0
-10 -738 2219 0
-10 -739 2220 0
-10 -740 2217 0
-11 -737 2219 0
-11 -738 2220 0
-11 -739 2217 0
-11 -740 2218 0
-12 -737 2220 0
-12 -738 2217 0
-12 -739 2218 0
-12 -740 2219 0
-5 -1109 2221 0
-5 -1110 2222 0
-5 -1111 2223 0
-5 -1112 2224 0
-6 -1109 2222 0
-6 -1110 2223 0
-6 -1111 2224 0
-6 -1112 2221 0
-7 -1109 2223 0
-7 -1110 2224 0
-7 -1111 2221 0
-7 -1112 2222 0
-8 -1109 2224 0
-8 -1110 2221 0
-8 -1111 2222 0
-8 -1112 2223 0
2225 2226 2227 2228 0
-2225 -2226 0
-2225 -2227 0
-2225 -2228 0
-2226 -2227 0
-2226 -2228 0
-2227 -2228 0
-5 -1113 2229 0
-5 -1114 2230 0
-5 -1115 2231 0
-5 -1116 2232 0
-6 -1113 2230 0
-6 -1114 2231 0
-6 -1115 2232 0
-6 -1116 2229 0
-7 -1113 2231 0
-7 -1114 2232 0
-7 -1115 2229 0
-7 -1116 2230 0
-8 -1113 2232 0
-8 -1114 2229 0
-8 -1115 2230 0
-8 -1116 2231 0
-49 -169 2233 0
-49 -170 2234 0
-49 -171 2235 0
-49 -172 2236 0
-50 -169 2234 0
-50 -170 2235 0
-50 -171 2236 0
-50 -172 2233 0
-51 -169 2235 0
-51 -170 2236 0
-51 -171 2233 0
-51 -172 2234 0
-52 -169 2236 0
-52 -170 2233 0
-52 -171 2234 0
-52 -172 2235 0
-5 -1117 2237 0
-5 -1118 2238 0
-5 -1119 2239 0
-5 -1120 2240 0
-6 -1117 2238 0
-6 -1118 2239 0
-6 -1119 2240 0
-6 -1120 2237 0
-7 -1117 2239 0
-7 -1118 2240 0
-7 -1119 2237 0
-7 -1120 2238 0
-8 -1117 2240 0
-8 -1118 2237 0
-8 -1119 2238 0
-8 -1120 2239 0
-9 -745 2241 0
-9 -746 2242 0
-9 -747 2243 0
-9 -748 2244 0
-10 -745 2242 0
-10 -746 2243 0
-10 -747 2244 0
-10 -748 2241 0
-11 -745 2243 0
-11 -746 2244 0
-11 -747 2241 0
-11 -748 2242 0
-12 -745 2244 0
-12 -746 2241 0
-12 -747 2242 0
-12 -748 2243 0
-5 -1121 2245 0
-5 -1122 2246 0
-5 -1123 2247 0
-5 -1124 2248 0
-6 -1121 2246 0
-6 -1122 2247 0
-6 -1123 2248 0
-6 -1124 2245 0
-7 -1121 2247 0
-7 -1122 2248 0
-7 -1123 2245 0
-7 -1124 2246 0
-8 -1121 2248 0
-8 -1122 2245 0
-8 -1123 2246 0
-8 -1124 2247 0
2249 2250 2251 2252 0
-2249 -2250 0
-2249 -2251 0
-2249 -2252 0
-2250 -2251 0
-2250 -2252 0
-2251 -2252 0
-5 -1125 2253 0
-5 -1126 2254 0
-5 -1127 2255 0
-5 -1128 2256 0
-6 -1125 2254 0
-6 -1126 2255 0
-6 -1127 2256 0
-6 -1128 2253 0
-7 -1125 2255 0
-7 -1126 2256 0
-7 -1127 2253 0
-7 -1128 2254 0
-8 -1125 2256 0
-8 -1126 2253 0
-8 -1127 2254 0
-8 -1128 2255 0
-17 -449 2257 0
-17 -450 2258 0
-17 -451 2259 0
-17 -452 2260 0
-18 -449 2258 0
-18 -450 2259 0
-18 -451 2260 0
-18 -452 2257 0
-19 -449 2259 0
-19 -450 2260 0
-19 -451 2257 0
-19 -452 2258 0
-20 -449 2260 0
-20 -450 2257 0
-20 -451 2258 0
-20 -452 2259 0
-5 -1129 2261 0
-5 -1130 2262 0
-5 -1131 2263 0
-5 -1132 2264 0
-6 -1129 2262 0
-6 -1130 2263 0
-6 -1131 2264 0
-6 -1132 2261 0
-7 -1129 2263 0
-7 -1130 2264 0
-7 -1131 2261 0
-7 -1132 2262 0
-8 -1129 2264 0
-8 -1130 2261 0
-8 -1131 2262 0
-8 -1132 2263 0
-9 -753 2265 0
-9 -754 2266 0
-9 -755 2267 0
-9 -756 2268 0
-10 -753 2266 0
-10 -754 2267 0
-10 -755 2268 0
-10 -756 2265 0
-11 -753 2267 0
-11 -754 2268 0
-11 -755 2265 0
-11 -756 2266 0
-12 -753 2268 0
-12 -754 2265 0
-12 -755 2266 0
-12 -756 2267 0
-5 -1133 2269 0
-5 -1134 2270 0
-5 -1135 2271 0
-5 -1136 2272 0
-6 -1133 2270 0
-6 -1134 2271 0
-6 -1135 2272 0
-6 -1136 2269 0
-7 -1133 2271 0
-7 -1134 2272 0
-7 -1135 2269 0
-7 -1136 2270 0
-8 -1133 2272 0
-8 -1134 2269 0
-8 -1135 2270 0
-8 -1136 2271 0
2273 2274 2275 2276 0
-2273 -2274 0
-2273 -2275 0
-2273 -2276 0
-2274 -2275 0
-2274 -2276 0
-2275 -2276 0
-5 -1137 2277 0
-5 -1138 2278 0
-5 -1139 2279 0
-5 -1140 2280 0
-6 -1137 2278 0
-6 -1138 2279 0
-6 -1139 2280 0
-6 -1140 2277 0
-7 -1137 2279 0
-7 -1138 2280 0
-7 -1139 2277 0
-7 -1140 2278 0
-8 -1137 2280 0
-8 -1138 2277 0
-8 -1139 2278 0
-8 -1140 2279 0
2281 2282 2283 2284 0
-2281 -2282 0
-2281 -2283 0
-2281 -2284 0
-2282 -2283 0
-2282 -2284 0
-2283 -2284 0
-5 -1141 2285 0
-5 -1142 2286 0
-5 -1143 2287 0
-5 -1144 2288 0
-6 -1141 2286 0
-6 -1142 2287 0
-6 -1143 2288 0
-6 -1144 2285 0
-7 -1141 2287 0
-7 -1142 2288 0
-7 -1143 2285 0
-7 -1144 2286 0
-8 -1141 2288 0
-8 -1142 2285 0
-8 -1143 2286 0
-8 -1144 2287 0
-9 -761 2289 0
-9 -762 2290 0
-9 -763 2291 0
-9 -764 2292 0
-10 -761 2290 0
-10 -762 2291 0
-10 -763 2292 0
-10 -764 2289 0
-11 -761 2291 0
-11 -762 2292 0
-11 -763 2289 0
-11 -764 2290 0
-12 -761 2292 0
-12 -762 2289 0
-12 -763 2290 0
-12 -764 2291 0
-5 -1145 2293 0
-5 -1146 2294 0
-5 -1147 2295 0
-5 -1148 2296 0
-6 -1145 2294 0
-6 -1146 2295 0
-6 -1147 2296 0
-6 -1148 2293 0
-7 -1145 2295 0
-7 -1146 2296 0
-7 -1147 2293 0
-7 -1148 2294 0
-8 -1145 2296 0
-8 -1146 2293 0
-8 -1147 2294 0
-8 -1148 2295 0
-17 -457 2297 0
-17 -458 2298 0
-17 -459 2299 0
-17 -460 2300 0
-18 -457 2298 0
-18 -458 2299 0
-18 -459 2300 0
-18 -460 2297 0
-19 -457 2299 0
-19 -458 2300 0
-19 -459 2297 0
-19 -460 2298 0
-20 -457 2300 0
-20 -458 2297 0
-20 -459 2298 0
-20 -460 2299 0
-5 -1149 2301 0
-5 -1150 2302 0
-5 -1151 2303 0
-5 -1152 2304 0
-6 -1149 2302 0
-6 -1150 2303 0
-6 -1151 2304 0
-6 -1152 2301 0
-7 -1149 2303 0
-7 -1150 2304 0
-7 -1151 2301 0
-7 -1152 2302 0
-8 -1149 2304 0
-8 -1150 2301 0
-8 -1151 2302 0
-8 -1152 2303 0
2305 2306 2307 2308 0
-2305 -2306 0
-2305 -2307 0
-2305 -2308 0
-2306 -2307 0
-2306 -2308 0
-2307 -2308 0
-5 -1153 2309 0
-5 -1154 2310 0
-5 -1155 2311 0
-5 -1156 2312 0
-6 -1153 2310 0
-6 -1154 2311 0
-6 -1155 2312 0
-6 -1156 2309 0
-7 -1153 2311 0
-7 -1154 2312 0
-7 -1155 2309 0
-7 -1156 2310 0
-8 -1153 2312 0
-8 -1154 2309 0
-8 -1155 2310 0
-8 -1156 2311 0
-9 -769 2313 0
-9 -770 2314 0
-9 -771 2315 0
-9 -772 2316 0
-10 -769 2314 0
-10 -770 2315 0
-10 -771 2316 0
-10 -772 2313 0
-11 -769 2315 0
-11 -770 2316 0
-11 -771 2313 0
-11 -772 2314 0
-12 -769 2316 0
-12 -770 2313 0
-12 -771 2314 0
-12 -772 2315 0
-5 -1157 2317 0
-5 -1158 2318 0
-5 -1159 2319 0
-5 -1160 2320 0
-6 -1157 2318 0
-6 -1158 2319 0
-6 -1159 2320 0
-6 -1160 2317 0
-7 -1157 2319 0
-7 -1158 2320 0
-7 -1159 2317 0
-7 -1160 2318 0
-8 -1157 2320 0
-8 -1158 2317 0
-8 -1159 2318 0
-8 -1160 2319 0
-25 -329 2321 0
-25 -330 2322 0
-25 -331 2323 0
-25 -332 2324 0
-26 -329 2322 0
-26 -330 2323 0
-26 -331 2324 0
-26 -332 2321 0
-27 -329 2323 0
-27 -330 2324 0
-27 -331 2321 0
-27 -332 2322 0
-28 -329 2324 0
-28 -330 2321 0
-28 -331 2322 0
-28 -332 2323 0
-5 -1161 2325 0
-5 -1162 2326 0
-5 -1163 2327 0
-5 -1164 2328 0
-6 -1161 2326 0
-6 -1162 2327 0
-6 -1163 2328 0
-6 -1164 2325 0
-7 -1161 2327 0
-7 -1162 2328 0
-7 -1163 2325 0
-7 -1164 2326 0
-8 -1161 2328 0
-8 -1162 2325 0
-8 -1163 2326 0
-8 -1164 2327 0
-41 -209 2329 0
-41 -210 2330 0
-41 -211 2331 0
-41 -212 2332 0
-42 -209 2330 0
-42 -210 2331 0
-42 -211 2332 0
-42 -212 2329 0
-43 -209 2331 0
-43 -210 2332 0
-43 -211 2329 0
-43 -212 2330 0
-44 -209 2332 0
-44 -210 2329 0
-44 -211 2330 0
-44 -212 2331 0
-5 -1165 2333 0
-5 -1166 2334 0
-5 -1167 2335 0
-5 -1168 2336 0
-6 -1165 2334 0
-6 -1166 2335 0
-6 -1167 2336 0
-6 -1168 2333 0
-7 -1165 2335 0
-7 -1166 2336 0
-7 -1167 2333 0
-7 -1168 2334 0
-8 -1165 2336 0
-8 -1166 2333 0
-8 -1167 2334 0
-8 -1168 2335 0
-9 -777 2337 0
-9 -778 2338 0
-9 -779 2339 0
-9 -780 2340 0
-10 -777 2338 0
-10 -778 2339 0
-10 -779 2340 0
-10 -780 2337 0
-11 -777 2339 0
-11 -778 2340 0
-11 -779 2337 0
-11 -780 2338 0
-12 -777 2340 0
-12 -778 2337 0
-12 -779 2338 0
-12 -780 2339 0
-5 -1169 2341 0
-5 -1170 2342 0
-5 -1171 2343 0
-5 -1172 2344 0
-6 -1169 2342 0
-6 -1170 2343 0
-6 -1171 2344 0
-6 -1172 2341 0
-7 -1169 2343 0
-7 -1170 2344 0
-7 -1171 2341 0
-7 -1172 2342 0
-8 -1169 2344 0
-8 -1170 2341 0
-8 -1171 2342 0
-8 -1172 2343 0
2345 2346 2347 2348 0
-2345 -2346 0
-2345 -2347 0
-2345 -2348 0
-2346 -2347 0
-2346 -2348 0
-2347 -2348 0
-5 -1173 2349 0
-5 -1174 2350 0
-5 -1175 2351 0
-5 -1176 2352 0
-6 -1173 2350 0
-6 -1174 2351 0
-6 -1175 2352 0
-6 -1176 2349 0
-7 -1173 2351 0
-7 -1174 2352 0
-7 -1175 2349 0
-7 -1176 2350 0
-8 -1173 2352 0
-8 -1174 2349 0
-8 -1175 2350 0
-8 -1176 2351 0
-73 -121 2353 0
-73 -122 2354 0
-73 -123 2355 0
-73 -124 2356 0
-74 -121 2354 0
-74 -122 2355 0
-74 -123 2356 0
-74 -124 2353 0
-75 -121 2355 0
-75 -122 2356 0
-75 -123 2353 0
-75 -124 2354 0
-76 -121 2356 0
-76 -122 2353 0
-76 -123 2354 0
-76 -124 2355 0
-5 -1177 2357 0
-5 -1178 2358 0
-5 -1179 2359 0
-5 -1180 2360 0
-6 -1177 2358 0
-6 -1178 2359 0
-6 -1179 2360 0
-6 -1180 2357 0
-7 -1177 2359 0
-7 -1178 2360 0
-7 -1179 2357 0
-7 -1180 2358 0
-8 -1177 2360 0
-8 -1178 2357 0
-8 -1179 2358 0
-8 -1180 2359 0
-9 -785 2361 0
-9 -786 2362 0
-9 -787 2363 0
-9 -788 2364 0
-10 -785 2362 0
-10 -786 2363 0
-10 -787 2364 0
-10 -788 2361 0
-11 -785 2363 0
-11 -786 2364 0
-11 -787 2361 0
-11 -788 2362 0
-12 -785 2364 0
-12 -786 2361 0
-12 -787 2362 0
-12 -788 2363 0
-5 -1181 2365 0
-5 -1182 2366 0
-5 -1183 2367 0
-5 -1184 2368 0
-6 -1181 2366 0
-6 -1182 2367 0
-6 -1183 2368 0
-6 -1184 2365 0
-7 -1181 2367 0
-7 -1182 2368 0
-7 -1183 2365 0
-7 -1184 2366 0
-8 -1181 2368 0
-8 -1182 2365 0
-8 -1183 2366 0
-8 -1184 2367 0
2369 2370 2371 2372 0
-2369 -2370 0
-2369 -2371 0
-2369 -2372 0
-2370 -2371 0
-2370 -2372 0
-2371 -2372 0
-5 -1185 2373 0
-5 -1186 2374 0
-5 -1187 2375 0
-5 -1188 2376 0
-6 -1185 2374 0
-6 -1186 2375 0
-6 -1187 2376 0
-6 -1188 2373 0
-7 -1185 2375 0
-7 -1186 2376 0
-7 -1187 2373 0
-7 -1188 2374 0
-8 -1185 2376 0
-8 -1186 2373 0
-8 -1187 2374 0
-8 -1188 2375 0
-17 -473 2377 0
-17 -474 2378 0
-17 -475 2379 0
-17 -476 2380 0
-18 -473 2378 0
-18 -474 2379 0
-18 -475 2380 0
-18 -476 2377 0
-19 -473 2379 0
-19 -474 2380 0
-19 -475 2377 0
-19 -476 2378 0
-20 -473 2380 0
-20 -474 2377 0
-20 -475 2378 0
-20 -476 2379 0
-5 -1189 2381 0
-5 -1190 2382 0
-5 -1191 2383 0
-5 -1192 2384 0
-6 -1189 2382 0
-6 -1190 2383 0
-6 -1191 2384 0
-6 -1192 2381 0
-7 -1189 2383 0
-7 -1190 2384 0
-7 -1191 2381 0
-7 -1192 2382 0
-8 -1189 2384 0
-8 -1190 2381 0
-8 -1191 2382 0
-8 -1192 2383 0
-9 -793 2385 0
-9 -794 2386 0
-9 -795 2387 0
-9 -796 2388 0
-10 -793 2386 0
-10 -794 2387 0
-10 -795 2388 0
-10 -796 2385 0
-11 -793 2387 0
-11 -794 2388 0
-11 -795 2385 0
-11 -796 2386 0
-12 -793 2388 0
-12 -794 2385 0
-12 -795 2386 0
-12 -796 2387 0
-5 -1193 2389 0
-5 -1194 2390 0
-5 -1195 2391 0
-5 -1196 2392 0
-6 -1193 2390 0
-6 -1194 2391 0
-6 -1195 2392 0
-6 -1196 2389 0
-7 -1193 2391 0
-7 -1194 2392 0
-7 -1195 2389 0
-7 -1196 2390 0
-8 -1193 2392 0
-8 -1194 2389 0
-8 -1195 2390 0
-8 -1196 2391 0
2393 2394 2395 2396 0
-2393 -2394 0
-2393 -2395 0
-2393 -2396 0
-2394 -2395 0
-2394 -2396 0
-2395 -2396 0
-5 -1197 2397 0
-5 -1198 2398 0
-5 -1199 2399 0
-5 -1200 2400 0
-6 -1197 2398 0
-6 -1198 2399 0
-6 -1199 2400 0
-6 -1200 2397 0
-7 -1197 2399 0
-7 -1198 2400 0
-7 -1199 2397 0
-7 -1200 2398 0
-8 -1197 2400 0
-8 -1198 2397 0
-8 -1199 2398 0
-8 -1200 2399 0
2401 2402 2403 2404 0
-2401 -2402 0
-2401 -2403 0
-2401 -2404 0
-2402 -2403 0
-2402 -2404 0
-2403 -2404 0
-5 -1201 2405 0
-5 -1202 2406 0
-5 -1203 2407 0
-5 -1204 2408 0
-6 -1201 2406 0
-6 -1202 2407 0
-6 -1203 2408 0
-6 -1204 2405 0
-7 -1201 2407 0
-7 -1202 2408 0
-7 -1203 2405 0
-7 -1204 2406 0
-8 -1201 2408 0
-8 -1202 2405 0
-8 -1203 2406 0
-8 -1204 2407 0
-9 -801 2409 0
-9 -802 2410 0
-9 -803 2411 0
-9 -804 2412 0
-10 -801 2410 0
-10 -802 2411 0
-10 -803 2412 0
-10 -804 2409 0
-11 -801 2411 0
-11 -802 2412 0
-11 -803 2409 0
-11 -804 2410 0
-12 -801 2412 0
-12 -802 2409 0
-12 -803 2410 0
-12 -804 2411 0
-5 -1205 2413 0
-5 -1206 2414 0
-5 -1207 2415 0
-5 -1208 2416 0
-6 -1205 2414 0
-6 -1206 2415 0
-6 -1207 2416 0
-6 -1208 2413 0
-7 -1205 2415 0
-7 -1206 2416 0
-7 -1207 2413 0
-7 -1208 2414 0
-8 -1205 2416 0
-8 -1206 2413 0
-8 -1207 2414 0
-8 -1208 2415 0
-17 -481 2417 0
-17 -482 2418 0
-17 -483 2419 0
-17 -484 2420 0
-18 -481 2418 0
-18 -482 2419 0
-18 -483 2420 0
-18 -484 2417 0
-19 -481 2419 0
-19 -482 2420 0
-19 -483 2417 0
-19 -484 2418 0
-20 -481 2420 0
-20 -482 2417 0
-20 -483 2418 0
-20 -484 2419 0
-5 -1209 2421 0
-5 -1210 2422 0
-5 -1211 2423 0
-5 -1212 2424 0
-6 -1209 2422 0
-6 -1210 2423 0
-6 -1211 2424 0
-6 -1212 2421 0
-7 -1209 2423 0
-7 -1210 2424 0
-7 -1211 2421 0
-7 -1212 2422 0
-8 -1209 2424 0
-8 -1210 2421 0
-8 -1211 2422 0
-8 -1212 2423 0
2425 2426 2427 2428 0
-2425 -2426 0
-2425 -2427 0
-2425 -2428 0
-2426 -2427 0
-2426 -2428 0
-2427 -2428 0
-5 -1213 2429 0
-5 -1214 2430 0
-5 -1215 2431 0
-5 -1216 2432 0
-6 -1213 2430 0
-6 -1214 2431 0
-6 -1215 2432 0
-6 -1216 2429 0
-7 -1213 2431 0
-7 -1214 2432 0
-7 -1215 2429 0
-7 -1216 2430 0
-8 -1213 2432 0
-8 -1214 2429 0
-8 -1215 2430 0
-8 -1216 2431 0
-9 -809 2433 0
-9 -810 2434 0
-9 -811 2435 0
-9 -812 2436 0
-10 -809 2434 0
-10 -810 2435 0
-10 -811 2436 0
-10 -812 2433 0
-11 -809 2435 0
-11 -810 2436 0
-11 -811 2433 0
-11 -812 2434 0
-12 -809 2436 0
-12 -810 2433 0
-12 -811 2434 0
-12 -812 2435 0
-5 -1217 2437 0
-5 -1218 2438 0
-5 -1219 2439 0
-5 -1220 2440 0
-6 -1217 2438 0
-6 -1218 2439 0
-6 -1219 2440 0
-6 -1220 2437 0
-7 -1217 2439 0
-7 -1218 2440 0
-7 -1219 2437 0
-7 -1220 2438 0
-8 -1217 2440 0
-8 -1218 2437 0
-8 -1219 2438 0
-8 -1220 2439 0
-49 -185 2441 0
-49 -186 2442 0
-49 -187 2443 0
-49 -188 2444 0
-50 -185 2442 0
-50 -186 2443 0
-50 -187 2444 0
-50 -188 2441 0
-51 -185 2443 0
-51 -186 2444 0
-51 -187 2441 0
-51 -188 2442 0
-52 -185 2444 0
-52 -186 2441 0
-52 -187 2442 0
-52 -188 2443 0
-5 -1221 2445 0
-5 -1222 2446 0
-5 -1223 2447 0
-5 -1224 2448 0
-6 -1221 2446 0
-6 -1222 2447 0
-6 -1223 2448 0
-6 -1224 2445 0
-7 -1221 2447 0
-7 -1222 2448 0
-7 -1223 2445 0
-7 -1224 2446 0
-8 -1221 2448 0
-8 -1222 2445 0
-8 -1223 2446 0
-8 -1224 2447 0
2449 2450 2451 2452 0
-2449 -2450 0
-2449 -2451 0
-2449 -2452 0
-2450 -2451 0
-2450 -2452 0
-2451 -2452 0
-5 -1225 2453 0
-5 -1226 2454 0
-5 -1227 2455 0
-5 -1228 2456 0
-6 -1225 2454 0
-6 -1226 2455 0
-6 -1227 2456 0
-6 -1228 2453 0
-7 -1225 2455 0
-7 -1226 2456 0
-7 -1227 2453 0
-7 -1228 2454 0
-8 -1225 2456 0
-8 -1226 2453 0
-8 -1227 2454 0
-8 -1228 2455 0
-9 -817 2457 0
-9 -818 2458 0
-9 -819 2459 0
-9 -820 2460 0
-10 -817 2458 0
-10 -818 2459 0
-10 -819 2460 0
-10 -820 2457 0
-11 -817 2459 0
-11 -818 2460 0
-11 -819 2457 0
-11 -820 2458 0
-12 -817 2460 0
-12 -818 2457 0
-12 -819 2458 0
-12 -820 2459 0
-5 -1229 2461 0
-5 -1230 2462 0
-5 -1231 2463 0
-5 -1232 2464 0
-6 -1229 2462 0
-6 -1230 2463 0
-6 -1231 2464 0
-6 -1232 2461 0
-7 -1229 2463 0
-7 -1230 2464 0
-7 -1231 2461 0
-7 -1232 2462 0
-8 -1229 2464 0
-8 -1230 2461 0
-8 -1231 2462 0
-8 -1232 2463 0
2465 2466 2467 2468 0
-2465 -2466 0
-2465 -2467 0
-2465 -2468 0
-2466 -2467 0
-2466 -2468 0
-2467 -2468 0
-5 -1233 2469 0
-5 -1234 2470 0
-5 -1235 2471 0
-5 -1236 2472 0
-6 -1233 2470 0
-6 -1234 2471 0
-6 -1235 2472 0
-6 -1236 2469 0
-7 -1233 2471 0
-7 -1234 2472 0
-7 -1235 2469 0
-7 -1236 2470 0
-8 -1233 2472 0
-8 -1234 2469 0
-8 -1235 2470 0
-8 -1236 2471 0
2473 2474 2475 2476 0
-2473 -2474 0
-2473 -2475 0
-2473 -2476 0
-2474 -2475 0
-2474 -2476 0
-2475 -2476 0
-5 -1237 2477 0
-5 -1238 2478 0
-5 -1239 2479 0
-5 -1240 2480 0
-6 -1237 2478 0
-6 -1238 2479 0
-6 -1239 2480 0
-6 -1240 2477 0
-7 -1237 2479 0
-7 -1238 2480 0
-7 -1239 2477 0
-7 -1240 2478 0
-8 -1237 2480 0
-8 -1238 2477 0
-8 -1239 2478 0
-8 -1240 2479 0
-9 -825 2481 0
-9 -826 2482 0
-9 -827 2483 0
-9 -828 2484 0
-10 -825 2482 0
-10 -826 2483 0
-10 -827 2484 0
-10 -828 2481 0
-11 -825 2483 0
-11 -826 2484 0
-11 -827 2481 0
-11 -828 2482 0
-12 -825 2484 0
-12 -826 2481 0
-12 -827 2482 0
-12 -828 2483 0
-5 -1241 2485 0
-5 -1242 2486 0
-5 -1243 2487 0
-5 -1244 2488 0
-6 -1241 2486 0
-6 -1242 2487 0
-6 -1243 2488 0
-6 -1244 2485 0
-7 -1241 2487 0
-7 -1242 2488 0
-7 -1243 2485 0
-7 -1244 2486 0
-8 -1241 2488 0
-8 -1242 2485 0
-8 -1243 2486 0
-8 -1244 2487 0
-25 -353 2489 0
-25 -354 2490 0
-25 -355 2491 0
-25 -356 2492 0
-26 -353 2490 0
-26 -354 2491 0
-26 -355 2492 0
-26 -356 2489 0
-27 -353 2491 0
-27 -354 2492 0
-27 -355 2489 0
-27 -356 2490 0
-28 -353 2492 0
-28 -354 2489 0
-28 -355 2490 0
-28 -356 2491 0
-5 -1245 2493 0
-5 -1246 2494 0
-5 -1247 2495 0
-5 -1248 2496 0
-6 -1245 2494 0
-6 -1246 2495 0
-6 -1247 2496 0
-6 -1248 2493 0
-7 -1245 2495 0
-7 -1246 2496 0
-7 -1247 2493 0
-7 -1248 2494 0
-8 -1245 2496 0
-8 -1246 2493 0
-8 -1247 2494 0
-8 -1248 2495 0
-17 -497 2497 0
-17 -498 2498 0
-17 -499 2499 0
-17 -500 2500 0
-18 -497 2498 0
-18 -498 2499 0
-18 -499 2500 0
-18 -500 2497 0
-19 -497 2499 0
-19 -498 2500 0
-19 -499 2497 0
-19 -500 2498 0
-20 -497 2500 0
-20 -498 2497 0
-20 -499 2498 0
-20 -500 2499 0
-5 -1249 2501 0
-5 -1250 2502 0
-5 -1251 2503 0
-5 -1252 2504 0
-6 -1249 2502 0
-6 -1250 2503 0
-6 -1251 2504 0
-6 -1252 2501 0
-7 -1249 2503 0
-7 -1250 2504 0
-7 -1251 2501 0
-7 -1252 2502 0
-8 -1249 2504 0
-8 -1250 2501 0
-8 -1251 2502 0
-8 -1252 2503 0
-9 -833 2505 0
-9 -834 2506 0
-9 -835 2507 0
-9 -836 2508 0
-10 -833 2506 0
-10 -834 2507 0
-10 -835 2508 0
-10 -836 2505 0
-11 -833 2507 0
-11 -834 2508 0
-11 -835 2505 0
-11 -836 2506 0
-12 -833 2508 0
-12 -834 2505 0
-12 -835 2506 0
-12 -836 2507 0
-5 -1253 2509 0
-5 -1254 2510 0
-5 -1255 2511 0
-5 -1256 2512 0
-6 -1253 2510 0
-6 -1254 2511 0
-6 -1255 2512 0
-6 -1256 2509 0
-7 -1253 2511 0
-7 -1254 2512 0
-7 -1255 2509 0
-7 -1256 2510 0
-8 -1253 2512 0
-8 -1254 2509 0
-8 -1255 2510 0
-8 -1256 2511 0
-65 -145 2513 0
-65 -146 2514 0
-65 -147 2515 0
-65 -148 2516 0
-66 -145 2514 0
-66 -146 2515 0
-66 -147 2516 0
-66 -148 2513 0
-67 -145 2515 0
-67 -146 2516 0
-67 -147 2513 0
-67 -148 2514 0
-68 -145 2516 0
-68 -146 2513 0
-68 -147 2514 0
-68 -148 2515 0
-5 -1257 2517 0
-5 -1258 2518 0
-5 -1259 2519 0
-5 -1260 2520 0
-6 -1257 2518 0
-6 -1258 2519 0
-6 -1259 2520 0
-6 -1260 2517 0
-7 -1257 2519 0
-7 -1258 2520 0
-7 -1259 2517 0
-7 -1260 2518 0
-8 -1257 2520 0
-8 -1258 2517 0
-8 -1259 2518 0
-8 -1260 2519 0
2521 2522 2523 2524 0
-2521 -2522 0
-2521 -2523 0
-2521 -2524 0
-2522 -2523 0
-2522 -2524 0
-2523 -2524 0
-5 -1261 2525 0
-5 -1262 2526 0
-5 -1263 2527 0
-5 -1264 2528 0
-6 -1261 2526 0
-6 -1262 2527 0
-6 -1263 2528 0
-6 -1264 2525 0
-7 -1261 2527 0
-7 -1262 2528 0
-7 -1263 2525 0
-7 -1264 2526 0
-8 -1261 2528 0
-8 -1262 2525 0
-8 -1263 2526 0
-8 -1264 2527 0
-9 -841 2529 0
-9 -842 2530 0
-9 -843 2531 0
-9 -844 2532 0
-10 -841 2530 0
-10 -842 2531 0
-10 -843 2532 0
-10 -844 2529 0
-11 -841 2531 0
-11 -842 2532 0
-11 -843 2529 0
-11 -844 2530 0
-12 -841 2532 0
-12 -842 2529 0
-12 -843 2530 0
-12 -844 2531 0
-5 -1265 2533 0
-5 -1266 2534 0
-5 -1267 2535 0
-5 -1268 2536 0
-6 -1265 2534 0
-6 -1266 2535 0
-6 -1267 2536 0
-6 -1268 2533 0
-7 -1265 2535 0
-7 -1266 2536 0
-7 -1267 2533 0
-7 -1268 2534 0
-8 -1265 2536 0
-8 -1266 2533 0
-8 -1267 2534 0
-8 -1268 2535 0
-17 -505 2537 0
-17 -506 2538 0
-17 -507 2539 0
-17 -508 2540 0
-18 -505 2538 0
-18 -506 2539 0
-18 -507 2540 0
-18 -508 2537 0
-19 -505 2539 0
-19 -506 2540 0
-19 -507 2537 0
-19 -508 2538 0
-20 -505 2540 0
-20 -506 2537 0
-20 -507 2538 0
-20 -508 2539 0
-5 -1269 2541 0
-5 -1270 2542 0
-5 -1271 2543 0
-5 -1272 2544 0
-6 -1269 2542 0
-6 -1270 2543 0
-6 -1271 2544 0
-6 -1272 2541 0
-7 -1269 2543 0
-7 -1270 2544 0
-7 -1271 2541 0
-7 -1272 2542 0
-8 -1269 2544 0
-8 -1270 2541 0
-8 -1271 2542 0
-8 -1272 2543 0
-25 -361 2545 0
-25 -362 2546 0
-25 -363 2547 0
-25 -364 2548 0
-26 -361 2546 0
-26 -362 2547 0
-26 -363 2548 0
-26 -364 2545 0
-27 -361 2547 0
-27 -362 2548 0
-27 -363 2545 0
-27 -364 2546 0
-28 -361 2548 0
-28 -362 2545 0
-28 -363 2546 0
-28 -364 2547 0
-5 -1273 2549 0
-5 -1274 2550 0
-5 -1275 2551 0
-5 -1276 2552 0
-6 -1273 2550 0
-6 -1274 2551 0
-6 -1275 2552 0
-6 -1276 2549 0
-7 -1273 2551 0
-7 -1274 2552 0
-7 -1275 2549 0
-7 -1276 2550 0
-8 -1273 2552 0
-8 -1274 2549 0
-8 -1275 2550 0
-8 -1276 2551 0
-9 -849 2553 0
-9 -850 2554 0
-9 -851 2555 0
-9 -852 2556 0
-10 -849 2554 0
-10 -850 2555 0
-10 -851 2556 0
-10 -852 2553 0
-11 -849 2555 0
-11 -850 2556 0
-11 -851 2553 0
-11 -852 2554 0
-12 -849 2556 0
-12 -850 2553 0
-12 -851 2554 0
-12 -852 2555 0
-5 -1277 2557 0
-5 -1278 2558 0
-5 -1279 2559 0
-5 -1280 2560 0
-6 -1277 2558 0
-6 -1278 2559 0
-6 -1279 2560 0
-6 -1280 2557 0
-7 -1277 2559 0
-7 -1278 2560 0
-7 -1279 2557 0
-7 -1280 2558 0
-8 -1277 2560 0
-8 -1278 2557 0
-8 -1279 2558 0
-8 -1280 2559 0
2561 2562 2563 2564 0
-2561 -2562 0
-2561 -2563 0
-2561 -2564 0
-2562 -2563 0
-2562 -2564 0
-2563 -2564 0
-5 -1281 2565 0
-5 -1282 2566 0
-5 -1283 2567 0
-5 -1284 2568 0
-6 -1281 2566 0
-6 -1282 2567 0
-6 -1283 2568 0
-6 -1284 2565 0
-7 -1281 2567 0
-7 -1282 2568 0
-7 -1283 2565 0
-7 -1284 2566 0
-8 -1281 2568 0
-8 -1282 2565 0
-8 -1283 2566 0
-8 -1284 2567 0
2569 2570 2571 2572 0
-2569 -2570 0
-2569 -2571 0
-2569 -2572 0
-2570 -2571 0
-2570 -2572 0
-2571 -2572 0
-5 -1285 2573 0
-5 -1286 2574 0
-5 -1287 2575 0
-5 -1288 2576 0
-6 -1285 2574 0
-6 -1286 2575 0
-6 -1287 2576 0
-6 -1288 2573 0
-7 -1285 2575 0
-7 -1286 2576 0
-7 -1287 2573 0
-7 -1288 2574 0
-8 -1285 2576 0
-8 -1286 2573 0
-8 -1287 2574 0
-8 -1288 2575 0
-9 -857 2577 0
-9 -858 2578 0
-9 -859 2579 0
-9 -860 2580 0
-10 -857 2578 0
-10 -858 2579 0
-10 -859 2580 0
-10 -860 2577 0
-11 -857 2579 0
-11 -858 2580 0
-11 -859 2577 0
-11 -860 2578 0
-12 -857 2580 0
-12 -858 2577 0
-12 -859 2578 0
-12 -860 2579 0
-5 -1289 2581 0
-5 -1290 2582 0
-5 -1291 2583 0
-5 -1292 2584 0
-6 -1289 2582 0
-6 -1290 2583 0
-6 -1291 2584 0
-6 -1292 2581 0
-7 -1289 2583 0
-7 -1290 2584 0
-7 -1291 2581 0
-7 -1292 2582 0
-8 -1289 2584 0
-8 -1290 2581 0
-8 -1291 2582 0
-8 -1292 2583 0
2585 2586 2587 2588 0
-2585 -2586 0
-2585 -2587 0
-2585 -2588 0
-2586 -2587 0
-2586 -2588 0
-2587 -2588 0
-5 -1293 2589 0
-5 -1294 2590 0
-5 -1295 2591 0
-5 -1296 2592 0
-6 -1293 2590 0
-6 -1294 2591 0
-6 -1295 2592 0
-6 -1296 2589 0
-7 -1293 2591 0
-7 -1294 2592 0
-7 -1295 2589 0
-7 -1296 2590 0
-8 -1293 2592 0
-8 -1294 2589 0
-8 -1295 2590 0
-8 -1296 2591 0
-41 -233 2593 0
-41 -234 2594 0
-41 -235 2595 0
-41 -236 2596 0
-42 -233 2594 0
-42 -234 2595 0
-42 -235 2596 0
-42 -236 2593 0
-43 -233 2595 0
-43 -234 2596 0
-43 -235 2593 0
-43 -236 2594 0
-44 -233 2596 0
-44 -234 2593 0
-44 -235 2594 0
-44 -236 2595 0
-5 -1297 2597 0
-5 -1298 2598 0
-5 -1299 2599 0
-5 -1300 2600 0
-6 -1297 2598 0
-6 -1298 2599 0
-6 -1299 2600 0
-6 -1300 2597 0
-7 -1297 2599 0
-7 -1298 2600 0
-7 -1299 2597 0
-7 -1300 2598 0
-8 -1297 2600 0
-8 -1298 2597 0
-8 -1299 2598 0
-8 -1300 2599 0
-9 -865 2601 0
-9 -866 2602 0
-9 -867 2603 0
-9 -868 2604 0
-10 -865 2602 0
-10 -866 2603 0
-10 -867 2604 0
-10 -868 2601 0
-11 -865 2603 0
-11 -866 2604 0
-11 -867 2601 0
-11 -868 2602 0
-12 -865 2604 0
-12 -866 2601 0
-12 -867 2602 0
-12 -868 2603 0
-5 -1301 2605 0
-5 -1302 2606 0
-5 -1303 2607 0
-5 -1304 2608 0
-6 -1301 2606 0
-6 -1302 2607 0
-6 -1303 2608 0
-6 -1304 2605 0
-7 -1301 2607 0
-7 -1302 2608 0
-7 -1303 2605 0
-7 -1304 2606 0
-8 -1301 2608 0
-8 -1302 2605 0
-8 -1303 2606 0
-8 -1304 2607 0
2609 2610 2611 2612 0
-2609 -2610 0
-2609 -2611 0
-2609 -2612 0
-2610 -2611 0
-2610 -2612 0
-2611 -2612 0
-5 -1305 2613 0
-5 -1306 2614 0
-5 -1307 2615 0
-5 -1308 2616 0
-6 -1305 2614 0
-6 -1306 2615 0
-6 -1307 2616 0
-6 -1308 2613 0
-7 -1305 2615 0
-7 -1306 2616 0
-7 -1307 2613 0
-7 -1308 2614 0
-8 -1305 2616 0
-8 -1306 2613 0
-8 -1307 2614 0
-8 -1308 2615 0
-17 -521 2617 0
-17 -522 2618 0
-17 -523 2619 0
-17 -524 2620 0
-18 -521 2618 0
-18 -522 2619 0
-18 -523 2620 0
-18 -524 2617 0
-19 -521 2619 0
-19 -522 2620 0
-19 -523 2617 0
-19 -524 2618 0
-20 -521 2620 0
-20 -522 2617 0
-20 -523 2618 0
-20 -524 2619 0
-5 -1309 2621 0
-5 -1310 2622 0
-5 -1311 2623 0
-5 -1312 2624 0
-6 -1309 2622 0
-6 -1310 2623 0
-6 -1311 2624 0
-6 -1312 2621 0
-7 -1309 2623 0
-7 -1310 2624 0
-7 -1311 2621 0
-7 -1312 2622 0
-8 -1309 2624 0
-8 -1310 2621 0
-8 -1311 2622 0
-8 -1312 2623 0
-9 -873 2625 0
-9 -874 2626 0
-9 -875 2627 0
-9 -876 2628 0
-10 -873 2626 0
-10 -874 2627 0
-10 -875 2628 0
-10 -876 2625 0
-11 -873 2627 0
-11 -874 2628 0
-11 -875 2625 0
-11 -876 2626 0
-12 -873 2628 0
-12 -874 2625 0
-12 -875 2626 0
-12 -876 2627 0
-5 -1313 2629 0
-5 -1314 2630 0
-5 -1315 2631 0
-5 -1316 2632 0
-6 -1313 2630 0
-6 -1314 2631 0
-6 -1315 2632 0
-6 -1316 2629 0
-7 -1313 2631 0
-7 -1314 2632 0
-7 -1315 2629 0
-7 -1316 2630 0
-8 -1313 2632 0
-8 -1314 2629 0
-8 -1315 2630 0
-8 -1316 2631 0
2633 2634 2635 2636 0
-2633 -2634 0
-2633 -2635 0
-2633 -2636 0
-2634 -2635 0
-2634 -2636 0
-2635 -2636 0
-5 -1317 2637 0
-5 -1318 2638 0
-5 -1319 2639 0
-5 -1320 2640 0
-6 -1317 2638 0
-6 -1318 2639 0
-6 -1319 2640 0
-6 -1320 2637 0
-7 -1317 2639 0
-7 -1318 2640 0
-7 -1319 2637 0
-7 -1320 2638 0
-8 -1317 2640 0
-8 -1318 2637 0
-8 -1319 2638 0
-8 -1320 2639 0
2641 2642 2643 2644 0
-2641 -2642 0
-2641 -2643 0
-2641 -2644 0
-2642 -2643 0
-2642 -2644 0
-2643 -2644 0
-5 -1321 2645 0
-5 -1322 2646 0
-5 -1323 2647 0
-5 -1324 2648 0
-6 -1321 2646 0
-6 -1322 2647 0
-6 -1323 2648 0
-6 -1324 2645 0
-7 -1321 2647 0
-7 -1322 2648 0
-7 -1323 2645 0
-7 -1324 2646 0
-8 -1321 2648 0
-8 -1322 2645 0
-8 -1323 2646 0
-8 -1324 2647 0
-9 -881 2649 0
-9 -882 2650 0
-9 -883 2651 0
-9 -884 2652 0
-10 -881 2650 0
-10 -882 2651 0
-10 -883 2652 0
-10 -884 2649 0
-11 -881 2651 0
-11 -882 2652 0
-11 -883 2649 0
-11 -884 2650 0
-12 -881 2652 0
-12 -882 2649 0
-12 -883 2650 0
-12 -884 2651 0
-5 -1325 2653 0
-5 -1326 2654 0
-5 -1327 2655 0
-5 -1328 2656 0
-6 -1325 2654 0
-6 -1326 2655 0
-6 -1327 2656 0
-6 -1328 2653 0
-7 -1325 2655 0
-7 -1326 2656 0
-7 -1327 2653 0
-7 -1328 2654 0
-8 -1325 2656 0
-8 -1326 2653 0
-8 -1327 2654 0
-8 -1328 2655 0
-17 -529 2657 0
-17 -530 2658 0
-17 -531 2659 0
-17 -532 2660 0
-18 -529 2658 0
-18 -530 2659 0
-18 -531 2660 0
-18 -532 2657 0
-19 -529 2659 0
-19 -530 2660 0
-19 -531 2657 0
-19 -532 2658 0
-20 -529 2660 0
-20 -530 2657 0
-20 -531 2658 0
-20 -532 2659 0
-5 -1329 2661 0
-5 -1330 2662 0
-5 -1331 2663 0
-5 -1332 2664 0
-6 -1329 2662 0
-6 -1330 2663 0
-6 -1331 2664 0
-6 -1332 2661 0
-7 -1329 2663 0
-7 -1330 2664 0
-7 -1331 2661 0
-7 -1332 2662 0
-8 -1329 2664 0
-8 -1330 2661 0
-8 -1331 2662 0
-8 -1332 2663 0
-89 -113 2665 0
-89 -114 2666 0
-89 -115 2667 0
-89 -116 2668 0
-90 -113 2666 0
-90 -114 2667 0
-90 -115 2668 0
-90 -116 2665 0
-91 -113 2667 0
-91 -114 2668 0
-91 -115 2665 0
-91 -116 2666 0
-92 -113 2668 0
-92 -114 2665 0
-92 -115 2666 0
-92 -116 2667 0
-5 -1333 2669 0
-5 -1334 2670 0
-5 -1335 2671 0
-5 -1336 2672 0
-6 -1333 2670 0
-6 -1334 2671 0
-6 -1335 2672 0
-6 -1336 2669 0
-7 -1333 2671 0
-7 -1334 2672 0
-7 -1335 2669 0
-7 -1336 2670 0
-8 -1333 2672 0
-8 -1334 2669 0
-8 -1335 2670 0
-8 -1336 2671 0
-9 -889 2673 0
-9 -890 2674 0
-9 -891 2675 0
-9 -892 2676 0
-10 -889 2674 0
-10 -890 2675 0
-10 -891 2676 0
-10 -892 2673 0
-11 -889 2675 0
-11 -890 2676 0
-11 -891 2673 0
-11 -892 2674 0
-12 -889 2676 0
-12 -890 2673 0
-12 -891 2674 0
-12 -892 2675 0
-5 -1337 2677 0
-5 -1338 2678 0
-5 -1339 2679 0
-5 -1340 2680 0
-6 -1337 2678 0
-6 -1338 2679 0
-6 -1339 2680 0
-6 -1340 2677 0
-7 -1337 2679 0
-7 -1338 2680 0
-7 -1339 2677 0
-7 -1340 2678 0
-8 -1337 2680 0
-8 -1338 2677 0
-8 -1339 2678 0
-8 -1340 2679 0
-41 -241 2681 0
-41 -242 2682 0
-41 -243 2683 0
-41 -244 2684 0
-42 -241 2682 0
-42 -242 2683 0
-42 -243 2684 0
-42 -244 2681 0
-43 -241 2683 0
-43 -242 2684 0
-43 -243 2681 0
-43 -244 2682 0
-44 -241 2684 0
-44 -242 2681 0
-44 -243 2682 0
-44 -244 2683 0
-5 -1341 2685 0
-5 -1342 2686 0
-5 -1343 2687 0
-5 -1344 2688 0
-6 -1341 2686 0
-6 -1342 2687 0
-6 -1343 2688 0
-6 -1344 2685 0
-7 -1341 2687 0
-7 -1342 2688 0
-7 -1343 2685 0
-7 -1344 2686 0
-8 -1341 2688 0
-8 -1342 2685 0
-8 -1343 2686 0
-8 -1344 2687 0
2689 2690 2691 2692 0
-2689 -2690 0
-2689 -2691 0
-2689 -2692 0
-2690 -2691 0
-2690 -2692 0
-2691 -2692 0
-5 -1345 2693 0
-5 -1346 2694 0
-5 -1347 2695 0
-5 -1348 2696 0
-6 -1345 2694 0
-6 -1346 2695 0
-6 -1347 2696 0
-6 -1348 2693 0
-7 -1345 2695 0
-7 -1346 2696 0
-7 -1347 2693 0
-7 -1348 2694 0
-8 -1345 2696 0
-8 -1346 2693 0
-8 -1347 2694 0
-8 -1348 2695 0
-9 -897 2697 0
-9 -898 2698 0
-9 -899 2699 0
-9 -900 2700 0
-10 -897 2698 0
-10 -898 2699 0
-10 -899 2700 0
-10 -900 2697 0
-11 -897 2699 0
-11 -898 2700 0
-11 -899 2697 0
-11 -900 2698 0
-12 -897 2700 0
-12 -898 2697 0
-12 -899 2698 0
-12 -900 2699 0
-5 -1349 2701 0
-5 -1350 2702 0
-5 -1351 2703 0
-5 -1352 2704 0
-6 -1349 2702 0
-6 -1350 2703 0
-6 -1351 2704 0
-6 -1352 2701 0
-7 -1349 2703 0
-7 -1350 2704 0
-7 -1351 2701 0
-7 -1352 2702 0
-8 -1349 2704 0
-8 -1350 2701 0
-8 -1351 2702 0
-8 -1352 2703 0
2705 2706 2707 2708 0
-2705 -2706 0
-2705 -2707 0
-2705 -2708 0
-2706 -2707 0
-2706 -2708 0
-2707 -2708 0
-5 -1353 2709 0
-5 -1354 2710 0
-5 -1355 2711 0
-5 -1356 2712 0
-6 -1353 2710 0
-6 -1354 2711 0
-6 -1355 2712 0
-6 -1356 2709 0
-7 -1353 2711 0
-7 -1354 2712 0
-7 -1355 2709 0
-7 -1356 2710 0
-8 -1353 2712 0
-8 -1354 2709 0
-8 -1355 2710 0
-8 -1356 2711 0
-25 -385 2713 0
-25 -386 2714 0
-25 -387 2715 0
-25 -388 2716 0
-26 -385 2714 0
-26 -386 2715 0
-26 -387 2716 0
-26 -388 2713 0
-27 -385 2715 0
-27 -386 2716 0
-27 -387 2713 0
-27 -388 2714 0
-28 -385 2716 0
-28 -386 2713 0
-28 -387 2714 0
-28 -388 2715 0
-5 -1357 2717 0
-5 -1358 2718 0
-5 -1359 2719 0
-5 -1360 2720 0
-6 -1357 2718 0
-6 -1358 2719 0
-6 -1359 2720 0
-6 -1360 2717 0
-7 -1357 2719 0
-7 -1358 2720 0
-7 -1359 2717 0
-7 -1360 2718 0
-8 -1357 2720 0
-8 -1358 2717 0
-8 -1359 2718 0
-8 -1360 2719 0
-9 -905 2721 0
-9 -906 2722 0
-9 -907 2723 0
-9 -908 2724 0
-10 -905 2722 0
-10 -906 2723 0
-10 -907 2724 0
-10 -908 2721 0
-11 -905 2723 0
-11 -906 2724 0
-11 -907 2721 0
-11 -908 2722 0
-12 -905 2724 0
-12 -906 2721 0
-12 -907 2722 0
-12 -908 2723 0
-5 -1361 2725 0
-5 -1362 2726 0
-5 -1363 2727 0
-5 -1364 2728 0
-6 -1361 2726 0
-6 -1362 2727 0
-6 -1363 2728 0
-6 -1364 2725 0
-7 -1361 2727 0
-7 -1362 2728 0
-7 -1363 2725 0
-7 -1364 2726 0
-8 -1361 2728 0
-8 -1362 2725 0
-8 -1363 2726 0
-8 -1364 2727 0
2729 2730 2731 2732 0
-2729 -2730 0
-2729 -2731 0
-2729 -2732 0
-2730 -2731 0
-2730 -2732 0
-2731 -2732 0
-5 -1365 2733 0
-5 -1366 2734 0
-5 -1367 2735 0
-5 -1368 2736 0
-6 -1365 2734 0
-6 -1366 2735 0
-6 -1367 2736 0
-6 -1368 2733 0
-7 -1365 2735 0
-7 -1366 2736 0
-7 -1367 2733 0
-7 -1368 2734 0
-8 -1365 2736 0
-8 -1366 2733 0
-8 -1367 2734 0
-8 -1368 2735 0
-17 -545 2737 0
-17 -546 2738 0
-17 -547 2739 0
-17 -548 2740 0
-18 -545 2738 0
-18 -546 2739 0
-18 -547 2740 0
-18 -548 2737 0
-19 -545 2739 0
-19 -546 2740 0
-19 -547 2737 0
-19 -548 2738 0
-20 -545 2740 0
-20 -546 2737 0
-20 -547 2738 0
-20 -548 2739 0
-5 -1369 2741 0
-5 -1370 2742 0
-5 -1371 2743 0
-5 -1372 2744 0
-6 -1369 2742 0
-6 -1370 2743 0
-6 -1371 2744 0
-6 -1372 2741 0
-7 -1369 2743 0
-7 -1370 2744 0
-7 -1371 2741 0
-7 -1372 2742 0
-8 -1369 2744 0
-8 -1370 2741 0
-8 -1371 2742 0
-8 -1372 2743 0
-9 -913 2745 0
-9 -914 2746 0
-9 -915 2747 0
-9 -916 2748 0
-10 -913 2746 0
-10 -914 2747 0
-10 -915 2748 0
-10 -916 2745 0
-11 -913 2747 0
-11 -914 2748 0
-11 -915 2745 0
-11 -916 2746 0
-12 -913 2748 0
-12 -914 2745 0
-12 -915 2746 0
-12 -916 2747 0
-5 -1373 2749 0
-5 -1374 2750 0
-5 -1375 2751 0
-5 -1376 2752 0
-6 -1373 2750 0
-6 -1374 2751 0
-6 -1375 2752 0
-6 -1376 2749 0
-7 -1373 2751 0
-7 -1374 2752 0
-7 -1375 2749 0
-7 -1376 2750 0
-8 -1373 2752 0
-8 -1374 2749 0
-8 -1375 2750 0
-8 -1376 2751 0
-49 -209 2753 0
-49 -210 2754 0
-49 -211 2755 0
-49 -212 2756 0
-50 -209 2754 0
-50 -210 2755 0
-50 -211 2756 0
-50 -212 2753 0
-51 -209 2755 0
-51 -210 2756 0
-51 -211 2753 0
-51 -212 2754 0
-52 -209 2756 0
-52 -210 2753 0
-52 -211 2754 0
-52 -212 2755 0
-5 -1377 2757 0
-5 -1378 2758 0
-5 -1379 2759 0
-5 -1380 2760 0
-6 -1377 2758 0
-6 -1378 2759 0
-6 -1379 2760 0
-6 -1380 2757 0
-7 -1377 2759 0
-7 -1378 2760 0
-7 -1379 2757 0
-7 -1380 2758 0
-8 -1377 2760 0
-8 -1378 2757 0
-8 -1379 2758 0
-8 -1380 2759 0
2761 2762 2763 2764 0
-2761 -2762 0
-2761 -2763 0
-2761 -2764 0
-2762 -2763 0
-2762 -2764 0
-2763 -2764 0
-5 -1381 2765 0
-5 -1382 2766 0
-5 -1383 2767 0
-5 -1384 2768 0
-6 -1381 2766 0
-6 -1382 2767 0
-6 -1383 2768 0
-6 -1384 2765 0
-7 -1381 2767 0
-7 -1382 2768 0
-7 -1383 2765 0
-7 -1384 2766 0
-8 -1381 2768 0
-8 -1382 2765 0
-8 -1383 2766 0
-8 -1384 2767 0
-9 -921 2769 0
-9 -922 2770 0
-9 -923 2771 0
-9 -924 2772 0
-10 -921 2770 0
-10 -922 2771 0
-10 -923 2772 0
-10 -924 2769 0
-11 -921 2771 0
-11 -922 2772 0
-11 -923 2769 0
-11 -924 2770 0
-12 -921 2772 0
-12 -922 2769 0
-12 -923 2770 0
-12 -924 2771 0
-5 -1385 2773 0
-5 -1386 2774 0
-5 -1387 2775 0
-5 -1388 2776 0
-6 -1385 2774 0
-6 -1386 2775 0
-6 -1387 2776 0
-6 -1388 2773 0
-7 -1385 2775 0
-7 -1386 2776 0
-7 -1387 2773 0
-7 -1388 2774 0
-8 -1385 2776 0
-8 -1386 2773 0
-8 -1387 2774 0
-8 -1388 2775 0
-17 -553 2777 0
-17 -554 2778 0
-17 -555 2779 0
-17 -556 2780 0
-18 -553 2778 0
-18 -554 2779 0
-18 -555 2780 0
-18 -556 2777 0
-19 -553 2779 0
-19 -554 2780 0
-19 -555 2777 0
-19 -556 2778 0
-20 -553 2780 0
-20 -554 2777 0
-20 -555 2778 0
-20 -556 2779 0
-5 -1389 2781 0
-5 -1390 2782 0
-5 -1391 2783 0
-5 -1392 2784 0
-6 -1389 2782 0
-6 -1390 2783 0
-6 -1391 2784 0
-6 -1392 2781 0
-7 -1389 2783 0
-7 -1390 2784 0
-7 -1391 2781 0
-7 -1392 2782 0
-8 -1389 2784 0
-8 -1390 2781 0
-8 -1391 2782 0
-8 -1392 2783 0
-65 -161 2785 0
-65 -162 2786 0
-65 -163 2787 0
-65 -164 2788 0
-66 -161 2786 0
-66 -162 2787 0
-66 -163 2788 0
-66 -164 2785 0
-67 -161 2787 0
-67 -162 2788 0
-67 -163 2785 0
-67 -164 2786 0
-68 -161 2788 0
-68 -162 2785 0
-68 -163 2786 0
-68 -164 2787 0
-5 -1393 2789 0
-5 -1394 2790 0
-5 -1395 2791 0
-5 -1396 2792 0
-6 -1393 2790 0
-6 -1394 2791 0
-6 -1395 2792 0
-6 -1396 2789 0
-7 -1393 2791 0
-7 -1394 2792 0
-7 -1395 2789 0
-7 -1396 2790 0
-8 -1393 2792 0
-8 -1394 2789 0
-8 -1395 2790 0
-8 -1396 2791 0
-9 -929 2793 0
-9 -930 2794 0
-9 -931 2795 0
-9 -932 2796 0
-10 -929 2794 0
-10 -930 2795 0
-10 -931 2796 0
-10 -932 2793 0
-11 -929 2795 0
-11 -930 2796 0
-11 -931 2793 0
-11 -932 2794 0
-12 -929 2796 0
-12 -930 2793 0
-12 -931 2794 0
-12 -932 2795 0
-5 -1397 2797 0
-5 -1398 2798 0
-5 -1399 2799 0
-5 -1400 2800 0
-6 -1397 2798 0
-6 -1398 2799 0
-6 -1399 2800 0
-6 -1400 2797 0
-7 -1397 2799 0
-7 -1398 2800 0
-7 -1399 2797 0
-7 -1400 2798 0
-8 -1397 2800 0
-8 -1398 2797 0
-8 -1399 2798 0
-8 -1400 2799 0
2801 2802 2803 2804 0
-2801 -2802 0
-2801 -2803 0
-2801 -2804 0
-2802 -2803 0
-2802 -2804 0
-2803 -2804 0
-5 -1401 2805 0
-5 -1402 2806 0
-5 -1403 2807 0
-5 -1404 2808 0
-6 -1401 2806 0
-6 -1402 2807 0
-6 -1403 2808 0
-6 -1404 2805 0
-7 -1401 2807 0
-7 -1402 2808 0
-7 -1403 2805 0
-7 -1404 2806 0
-8 -1401 2808 0
-8 -1402 2805 0
-8 -1403 2806 0
-8 -1404 2807 0
-73 -145 2809 0
-73 -146 2810 0
-73 -147 2811 0
-73 -148 2812 0
-74 -145 2810 0
-74 -146 2811 0
-74 -147 2812 0
-74 -148 2809 0
-75 -145 2811 0
-75 -146 2812 0
-75 -147 2809 0
-75 -148 2810 0
-76 -145 2812 0
-76 -146 2809 0
-76 -147 2810 0
-76 -148 2811 0
-5 -1405 2813 0
-5 -1406 2814 0
-5 -1407 2815 0
-5 -1408 2816 0
-6 -1405 2814 0
-6 -1406 2815 0
-6 -1407 2816 0
-6 -1408 2813 0
-7 -1405 2815 0
-7 -1406 2816 0
-7 -1407 2813 0
-7 -1408 2814 0
-8 -1405 2816 0
-8 -1406 2813 0
-8 -1407 2814 0
-8 -1408 2815 0
-9 -937 2817 0
-9 -938 2818 0
-9 -939 2819 0
-9 -940 2820 0
-10 -937 2818 0
-10 -938 2819 0
-10 -939 2820 0
-10 -940 2817 0
-11 -937 2819 0
-11 -938 2820 0
-11 -939 2817 0
-11 -940 2818 0
-12 -937 2820 0
-12 -938 2817 0
-12 -939 2818 0
-12 -940 2819 0
-5 -1409 2821 0
-5 -1410 2822 0
-5 -1411 2823 0
-5 -1412 2824 0
-6 -1409 2822 0
-6 -1410 2823 0
-6 -1411 2824 0
-6 -1412 2821 0
-7 -1409 2823 0
-7 -1410 2824 0
-7 -1411 2821 0
-7 -1412 2822 0
-8 -1409 2824 0
-8 -1410 2821 0
-8 -1411 2822 0
-8 -1412 2823 0
-25 -401 2825 0
-25 -402 2826 0
-25 -403 2827 0
-25 -404 2828 0
-26 -401 2826 0
-26 -402 2827 0
-26 -403 2828 0
-26 -404 2825 0
-27 -401 2827 0
-27 -402 2828 0
-27 -403 2825 0
-27 -404 2826 0
-28 -401 2828 0
-28 -402 2825 0
-28 -403 2826 0
-28 -404 2827 0
-5 -1413 2829 0
-5 -1414 2830 0
-5 -1415 2831 0
-5 -1416 2832 0
-6 -1413 2830 0
-6 -1414 2831 0
-6 -1415 2832 0
-6 -1416 2829 0
-7 -1413 2831 0
-7 -1414 2832 0
-7 -1415 2829 0
-7 -1416 2830 0
-8 -1413 2832 0
-8 -1414 2829 0
-8 -1415 2830 0
-8 -1416 2831 0
2833 2834 2835 2836 0
-2833 -2834 0
-2833 -2835 0
-2833 -2836 0
-2834 -2835 0
-2834 -2836 0
-2835 -2836 0
-5 -1417 2837 0
-5 -1418 2838 0
-5 -1419 2839 0
-5 -1420 2840 0
-6 -1417 2838 0
-6 -1418 2839 0
-6 -1419 2840 0
-6 -1420 2837 0
-7 -1417 2839 0
-7 -1418 2840 0
-7 -1419 2837 0
-7 -1420 2838 0
-8 -1417 2840 0
-8 -1418 2837 0
-8 -1419 2838 0
-8 -1420 2839 0
-9 -945 2841 0
-9 -946 2842 0
-9 -947 2843 0
-9 -948 2844 0
-10 -945 2842 0
-10 -946 2843 0
-10 -947 2844 0
-10 -948 2841 0
-11 -945 2843 0
-11 -946 2844 0
-11 -947 2841 0
-11 -948 2842 0
-12 -945 2844 0
-12 -946 2841 0
-12 -947 2842 0
-12 -948 2843 0
-5 -1421 2845 0
-5 -1422 2846 0
-5 -1423 2847 0
-5 -1424 2848 0
-6 -1421 2846 0
-6 -1422 2847 0
-6 -1423 2848 0
-6 -1424 2845 0
-7 -1421 2847 0
-7 -1422 2848 0
-7 -1423 2845 0
-7 -1424 2846 0
-8 -1421 2848 0
-8 -1422 2845 0
-8 -1423 2846 0
-8 -1424 2847 0
-89 -121 2849 0
-89 -122 2850 0
-89 -123 2851 0
-89 -124 2852 0
-90 -121 2850 0
-90 -122 2851 0
-90 -123 2852 0
-90 -124 2849 0
-91 -121 2851 0
-91 -122 2852 0
-91 -123 2849 0
-91 -124 2850 0
-92 -121 2852 0
-92 -122 2849 0
-92 -123 2850 0
-92 -124 2851 0
-5 -1425 2853 0
-5 -1426 2854 0
-5 -1427 2855 0
-5 -1428 2856 0
-6 -1425 2854 0
-6 -1426 2855 0
-6 -1427 2856 0
-6 -1428 2853 0
-7 -1425 2855 0
-7 -1426 2856 0
-7 -1427 2853 0
-7 -1428 2854 0
-8 -1425 2856 0
-8 -1426 2853 0
-8 -1427 2854 0
-8 -1428 2855 0
-17 -569 2857 0
-17 -570 2858 0
-17 -571 2859 0
-17 -572 2860 0
-18 -569 2858 0
-18 -570 2859 0
-18 -571 2860 0
-18 -572 2857 0
-19 -569 2859 0
-19 -570 2860 0
-19 -571 2857 0
-19 -572 2858 0
-20 -569 2860 0
-20 -570 2857 0
-20 -571 2858 0
-20 -572 2859 0
-5 -1429 2861 0
-5 -1430 2862 0
-5 -1431 2863 0
-5 -1432 2864 0
-6 -1429 2862 0
-6 -1430 2863 0
-6 -1431 2864 0
-6 -1432 2861 0
-7 -1429 2863 0
-7 -1430 2864 0
-7 -1431 2861 0
-7 -1432 2862 0
-8 -1429 2864 0
-8 -1430 2861 0
-8 -1431 2862 0
-8 -1432 2863 0
-9 -953 2865 0
-9 -954 2866 0
-9 -955 2867 0
-9 -956 2868 0
-10 -953 2866 0
-10 -954 2867 0
-10 -955 2868 0
-10 -956 2865 0
-11 -953 2867 0
-11 -954 2868 0
-11 -955 2865 0
-11 -956 2866 0
-12 -953 2868 0
-12 -954 2865 0
-12 -955 2866 0
-12 -956 2867 0
-5 -1433 2869 0
-5 -1434 2870 0
-5 -1435 2871 0
-5 -1436 2872 0
-6 -1433 2870 0
-6 -1434 2871 0
-6 -1435 2872 0
-6 -1436 2869 0
-7 -1433 2871 0
-7 -1434 2872 0
-7 -1435 2869 0
-7 -1436 2870 0
-8 -1433 2872 0
-8 -1434 2869 0
-8 -1435 2870 0
-8 -1436 2871 0
2873 2874 2875 2876 0
-2873 -2874 0
-2873 -2875 0
-2873 -2876 0
-2874 -2875 0
-2874 -2876 0
-2875 -2876 0
-5 -1437 2877 0
-5 -1438 2878 0
-5 -1439 2879 0
-5 -1440 2880 0
-6 -1437 2878 0
-6 -1438 2879 0
-6 -1439 2880 0
-6 -1440 2877 0
-7 -1437 2879 0
-7 -1438 2880 0
-7 -1439 2877 0
-7 -1440 2878 0
-8 -1437 2880 0
-8 -1438 2877 0
-8 -1439 2878 0
-8 -1440 2879 0
-25 -409 2881 0
-25 -410 2882 0
-25 -411 2883 0
-25 -412 2884 0
-26 -409 2882 0
-26 -410 2883 0
-26 -411 2884 0
-26 -412 2881 0
-27 -409 2883 0
-27 -410 2884 0
-27 -411 2881 0
-27 -412 2882 0
-28 -409 2884 0
-28 -410 2881 0
-28 -411 2882 0
-28 -412 2883 0
-5 -1441 2885 0
-5 -1442 2886 0
-5 -1443 2887 0
-5 -1444 2888 0
-6 -1441 2886 0
-6 -1442 2887 0
-6 -1443 2888 0
-6 -1444 2885 0
-7 -1441 2887 0
-7 -1442 2888 0
-7 -1443 2885 0
-7 -1444 2886 0
-8 -1441 2888 0
-8 -1442 2885 0
-8 -1443 2886 0
-8 -1444 2887 0
-9 -961 2889 0
-9 -962 2890 0
-9 -963 2891 0
-9 -964 2892 0
-10 -961 2890 0
-10 -962 2891 0
-10 -963 2892 0
-10 -964 2889 0
-11 -961 2891 0
-11 -962 2892 0
-11 -963 2889 0
-11 -964 2890 0
-12 -961 2892 0
-12 -962 2889 0
-12 -963 2890 0
-12 -964 2891 0
-5 -1445 2893 0
-5 -1446 2894 0
-5 -1447 2895 0
-5 -1448 2896 0
-6 -1445 2894 0
-6 -1446 2895 0
-6 -1447 2896 0
-6 -1448 2893 0
-7 -1445 2895 0
-7 -1446 2896 0
-7 -1447 2893 0
-7 -1448 2894 0
-8 -1445 2896 0
-8 -1446 2893 0
-8 -1447 2894 0
-8 -1448 2895 0
-17 -577 2897 0
-17 -578 2898 0
-17 -579 2899 0
-17 -580 2900 0
-18 -577 2898 0
-18 -578 2899 0
-18 -579 2900 0
-18 -580 2897 0
-19 -577 2899 0
-19 -578 2900 0
-19 -579 2897 0
-19 -580 2898 0
-20 -577 2900 0
-20 -578 2897 0
-20 -579 2898 0
-20 -580 2899 0
-5 -1449 2901 0
-5 -1450 2902 0
-5 -1451 2903 0
-5 -1452 2904 0
-6 -1449 2902 0
-6 -1450 2903 0
-6 -1451 2904 0
-6 -1452 2901 0
-7 -1449 2903 0
-7 -1450 2904 0
-7 -1451 2901 0
-7 -1452 2902 0
-8 -1449 2904 0
-8 -1450 2901 0
-8 -1451 2902 0
-8 -1452 2903 0
2905 2906 2907 2908 0
-2905 -2906 0
-2905 -2907 0
-2905 -2908 0
-2906 -2907 0
-2906 -2908 0
-2907 -2908 0
-5 -1453 2909 0
-5 -1454 2910 0
-5 -1455 2911 0
-5 -1456 2912 0
-6 -1453 2910 0
-6 -1454 2911 0
-6 -1455 2912 0
-6 -1456 2909 0
-7 -1453 2911 0
-7 -1454 2912 0
-7 -1455 2909 0
-7 -1456 2910 0
-8 -1453 2912 0
-8 -1454 2909 0
-8 -1455 2910 0
-8 -1456 2911 0
-9 -969 2913 0
-9 -970 2914 0
-9 -971 2915 0
-9 -972 2916 0
-10 -969 2914 0
-10 -970 2915 0
-10 -971 2916 0
-10 -972 2913 0
-11 -969 2915 0
-11 -970 2916 0
-11 -971 2913 0
-11 -972 2914 0
-12 -969 2916 0
-12 -970 2913 0
-12 -971 2914 0
-12 -972 2915 0
-5 -1457 2917 0
-5 -1458 2918 0
-5 -1459 2919 0
-5 -1460 2920 0
-6 -1457 2918 0
-6 -1458 2919 0
-6 -1459 2920 0
-6 -1460 2917 0
-7 -1457 2919 0
-7 -1458 2920 0
-7 -1459 2917 0
-7 -1460 2918 0
-8 -1457 2920 0
-8 -1458 2917 0
-8 -1459 2918 0
-8 -1460 2919 0
-65 -169 2921 0
-65 -170 2922 0
-65 -171 2923 0
-65 -172 2924 0
-66 -169 2922 0
-66 -170 2923 0
-66 -171 2924 0
-66 -172 2921 0
-67 -169 2923 0
-67 -170 2924 0
-67 -171 2921 0
-67 -172 2922 0
-68 -169 2924 0
-68 -170 2921 0
-68 -171 2922 0
-68 -172 2923 0
-5 -1461 2925 0
-5 -1462 2926 0
-5 -1463 2927 0
-5 -1464 2928 0
-6 -1461 2926 0
-6 -1462 2927 0
-6 -1463 2928 0
-6 -1464 2925 0
-7 -1461 2927 0
-7 -1462 2928 0
-7 -1463 2925 0
-7 -1464 2926 0
-8 -1461 2928 0
-8 -1462 2925 0
-8 -1463 2926 0
-8 -1464 2927 0
2929 2930 2931 2932 0
-2929 -2930 0
-2929 -2931 0
-2929 -2932 0
-2930 -2931 0
-2930 -2932 0
-2931 -2932 0
-5 -1465 2933 0
-5 -1466 2934 0
-5 -1467 2935 0
-5 -1468 2936 0
-6 -1465 2934 0
-6 -1466 2935 0
-6 -1467 2936 0
-6 -1468 2933 0
-7 -1465 2935 0
-7 -1466 2936 0
-7 -1467 2933 0
-7 -1468 2934 0
-8 -1465 2936 0
-8 -1466 2933 0
-8 -1467 2934 0
-8 -1468 2935 0
-9 -977 2937 0
-9 -978 2938 0
-9 -979 2939 0
-9 -980 2940 0
-10 -977 2938 0
-10 -978 2939 0
-10 -979 2940 0
-10 -980 2937 0
-11 -977 2939 0
-11 -978 2940 0
-11 -979 2937 0
-11 -980 2938 0
-12 -977 2940 0
-12 -978 2937 0
-12 -979 2938 0
-12 -980 2939 0
-5 -1469 2941 0
-5 -1470 2942 0
-5 -1471 2943 0
-5 -1472 2944 0
-6 -1469 2942 0
-6 -1470 2943 0
-6 -1471 2944 0
-6 -1472 2941 0
-7 -1469 2943 0
-7 -1470 2944 0
-7 -1471 2941 0
-7 -1472 2942 0
-8 -1469 2944 0
-8 -1470 2941 0
-8 -1471 2942 0
-8 -1472 2943 0
-41 -265 2945 0
-41 -266 2946 0
-41 -267 2947 0
-41 -268 2948 0
-42 -265 2946 0
-42 -266 2947 0
-42 -267 2948 0
-42 -268 2945 0
-43 -265 2947 0
-43 -266 2948 0
-43 -267 2945 0
-43 -268 2946 0
-44 -265 2948 0
-44 -266 2945 0
-44 -267 2946 0
-44 -268 2947 0
-5 -1473 2949 0
-5 -1474 2950 0
-5 -1475 2951 0
-5 -1476 2952 0
-6 -1473 2950 0
-6 -1474 2951 0
-6 -1475 2952 0
-6 -1476 2949 0
-7 -1473 2951 0
-7 -1474 2952 0
-7 -1475 2949 0
-7 -1476 2950 0
-8 -1473 2952 0
-8 -1474 2949 0
-8 -1475 2950 0
-8 -1476 2951 0
2953 2954 2955 2956 0
-2953 -2954 0
-2953 -2955 0
-2953 -2956 0
-2954 -2955 0
-2954 -2956 0
-2955 -2956 0
-5 -1477 2957 0
-5 -1478 2958 0
-5 -1479 2959 0
-5 -1480 2960 0
-6 -1477 2958 0
-6 -1478 2959 0
-6 -1479 2960 0
-6 -1480 2957 0
-7 -1477 2959 0
-7 -1478 2960 0
-7 -1479 2957 0
-7 -1480 2958 0
-8 -1477 2960 0
-8 -1478 2957 0
-8 -1479 2958 0
-8 -1480 2959 0
-9 -985 2961 0
-9 -986 2962 0
-9 -987 2963 0
-9 -988 2964 0
-10 -985 2962 0
-10 -986 2963 0
-10 -987 2964 0
-10 -988 2961 0
-11 -985 2963 0
-11 -986 2964 0
-11 -987 2961 0
-11 -988 2962 0
-12 -985 2964 0
-12 -986 2961 0
-12 -987 2962 0
-12 -988 2963 0
-5 -1481 2965 0
-5 -1482 2966 0
-5 -1483 2967 0
-5 -1484 2968 0
-6 -1481 2966 0
-6 -1482 2967 0
-6 -1483 2968 0
-6 -1484 2965 0
-7 -1481 2967 0
-7 -1482 2968 0
-7 -1483 2965 0
-7 -1484 2966 0
-8 -1481 2968 0
-8 -1482 2965 0
-8 -1483 2966 0
-8 -1484 2967 0
2969 2970 2971 2972 0
-2969 -2970 0
-2969 -2971 0
-2969 -2972 0
-2970 -2971 0
-2970 -2972 0
-2971 -2972 0
-5 -1485 2973 0
-5 -1486 2974 0
-5 -1487 2975 0
-5 -1488 2976 0
-6 -1485 2974 0
-6 -1486 2975 0
-6 -1487 2976 0
-6 -1488 2973 0
-7 -1485 2975 0
-7 -1486 2976 0
-7 -1487 2973 0
-7 -1488 2974 0
-8 -1485 2976 0
-8 -1486 2973 0
-8 -1487 2974 0
-8 -1488 2975 0
-17 -593 2977 0
-17 -594 2978 0
-17 -595 2979 0
-17 -596 2980 0
-18 -593 2978 0
-18 -594 2979 0
-18 -595 2980 0
-18 -596 2977 0
-19 -593 2979 0
-19 -594 2980 0
-19 -595 2977 0
-19 -596 2978 0
-20 -593 2980 0
-20 -594 2977 0
-20 -595 2978 0
-20 -596 2979 0
-5 -1489 2981 0
-5 -1490 2982 0
-5 -1491 2983 0
-5 -1492 2984 0
-6 -1489 2982 0
-6 -1490 2983 0
-6 -1491 2984 0
-6 -1492 2981 0
-7 -1489 2983 0
-7 -1490 2984 0
-7 -1491 2981 0
-7 -1492 2982 0
-8 -1489 2984 0
-8 -1490 2981 0
-8 -1491 2982 0
-8 -1492 2983 0
-9 -993 2985 0
-9 -994 2986 0
-9 -995 2987 0
-9 -996 2988 0
-10 -993 2986 0
-10 -994 2987 0
-10 -995 2988 0
-10 -996 2985 0
-11 -993 2987 0
-11 -994 2988 0
-11 -995 2985 0
-11 -996 2986 0
-12 -993 2988 0
-12 -994 2985 0
-12 -995 2986 0
-12 -996 2987 0
-5 -1493 2989 0
-5 -1494 2990 0
-5 -1495 2991 0
-5 -1496 2992 0
-6 -1493 2990 0
-6 -1494 2991 0
-6 -1495 2992 0
-6 -1496 2989 0
-7 -1493 2991 0
-7 -1494 2992 0
-7 -1495 2989 0
-7 -1496 2990 0
-8 -1493 2992 0
-8 -1494 2989 0
-8 -1495 2990 0
-8 -1496 2991 0
-25 -425 2993 0
-25 -426 2994 0
-25 -427 2995 0
-25 -428 2996 0
-26 -425 2994 0
-26 -426 2995 0
-26 -427 2996 0
-26 -428 2993 0
-27 -425 2995 0
-27 -426 2996 0
-27 -427 2993 0
-27 -428 2994 0
-28 -425 2996 0
-28 -426 2993 0
-28 -427 2994 0
-28 -428 2995 0
-5 -1497 2997 0
-5 -1498 2998 0
-5 -1499 2999 0
-5 -1500 3000 0
-6 -1497 2998 0
-6 -1498 2999 0
-6 -1499 3000 0
-6 -1500 2997 0
-7 -1497 2999 0
-7 -1498 3000 0
-7 -1499 2997 0
-7 -1500 2998 0
-8 -1497 3000 0
-8 -1498 2997 0
-8 -1499 2998 0
-8 -1500 2999 0
3001 3002 3003 3004 0
-3001 -3002 0
-3001 -3003 0
-3001 -3004 0
-3002 -3003 0
-3002 -3004 0
-3003 -3004 0
-5 -1501 3005 0
-5 -1502 3006 0
-5 -1503 3007 0
-5 -1504 3008 0
-6 -1501 3006 0
-6 -1502 3007 0
-6 -1503 3008 0
-6 -1504 3005 0
-7 -1501 3007 0
-7 -1502 3008 0
-7 -1503 3005 0
-7 -1504 3006 0
-8 -1501 3008 0
-8 -1502 3005 0
-8 -1503 3006 0
-8 -1504 3007 0
-9 -1001 3009 0
-9 -1002 3010 0
-9 -1003 3011 0
-9 -1004 3012 0
-10 -1001 3010 0
-10 -1002 3011 0
-10 -1003 3012 0
-10 -1004 3009 0
-11 -1001 3011 0
-11 -1002 3012 0
-11 -1003 3009 0
-11 -1004 3010 0
-12 -1001 3012 0
-12 -1002 3009 0
-12 -1003 3010 0
-12 -1004 3011 0
-5 -1505 3013 0
-5 -1506 3014 0
-5 -1507 3015 0
-5 -1508 3016 0
-6 -1505 3014 0
-6 -1506 3015 0
-6 -1507 3016 0
-6 -1508 3013 0
-7 -1505 3015 0
-7 -1506 3016 0
-7 -1507 3013 0
-7 -1508 3014 0
-8 -1505 3016 0
-8 -1506 3013 0
-8 -1507 3014 0
-8 -1508 3015 0
-17 -601 3017 0
-17 -602 3018 0
-17 -603 3019 0
-17 -604 3020 0
-18 -601 3018 0
-18 -602 3019 0
-18 -603 3020 0
-18 -604 3017 0
-19 -601 3019 0
-19 -602 3020 0
-19 -603 3017 0
-19 -604 3018 0
-20 -601 3020 0
-20 -602 3017 0
-20 -603 3018 0
-20 -604 3019 0
-5 -1509 3021 0
-5 -1510 3022 0
-5 -1511 3023 0
-5 -1512 3024 0
-6 -1509 3022 0
-6 -1510 3023 0
-6 -1511 3024 0
-6 -1512 3021 0
-7 -1509 3023 0
-7 -1510 3024 0
-7 -1511 3021 0
-7 -1512 3022 0
-8 -1509 3024 0
-8 -1510 3021 0
-8 -1511 3022 0
-8 -1512 3023 0
3025 3026 3027 3028 0
-3025 -3026 0
-3025 -3027 0
-3025 -3028 0
-3026 -3027 0
-3026 -3028 0
-3027 -3028 0
-5 -1513 3029 0
-5 -1514 3030 0
-5 -1515 3031 0
-5 -1516 3032 0
-6 -1513 3030 0
-6 -1514 3031 0
-6 -1515 3032 0
-6 -1516 3029 0
-7 -1513 3031 0
-7 -1514 3032 0
-7 -1515 3029 0
-7 -1516 3030 0
-8 -1513 3032 0
-8 -1514 3029 0
-8 -1515 3030 0
-8 -1516 3031 0
-9 -1009 3033 0
-9 -1010 3034 0
-9 -1011 3035 0
-9 -1012 3036 0
-10 -1009 3034 0
-10 -1010 3035 0
-10 -1011 3036 0
-10 -1012 3033 0
-11 -1009 3035 0
-11 -1010 3036 0
-11 -1011 3033 0
-11 -1012 3034 0
-12 -1009 3036 0
-12 -1010 3033 0
-12 -1011 3034 0
-12 -1012 3035 0
-5 -1517 3037 0
-5 -1518 3038 0
-5 -1519 3039 0
-5 -1520 3040 0
-6 -1517 3038 0
-6 -1518 3039 0
-6 -1519 3040 0
-6 -1520 3037 0
-7 -1517 3039 0
-7 -1518 3040 0
-7 -1519 3037 0
-7 -1520 3038 0
-8 -1517 3040 0
-8 -1518 3037 0
-8 -1519 3038 0
-8 -1520 3039 0
3041 3042 3043 3044 0
-3041 -3042 0
-3041 -3043 0
-3041 -3044 0
-3042 -3043 0
-3042 -3044 0
-3043 -3044 0
-5 -1521 3045 0
-5 -1522 3046 0
-5 -1523 3047 0
-5 -1524 3048 0
-6 -1521 3046 0
-6 -1522 3047 0
-6 -1523 3048 0
-6 -1524 3045 0
-7 -1521 3047 0
-7 -1522 3048 0
-7 -1523 3045 0
-7 -1524 3046 0
-8 -1521 3048 0
-8 -1522 3045 0
-8 -1523 3046 0
-8 -1524 3047 0
-25 -433 3049 0
-25 -434 3050 0
-25 -435 3051 0
-25 -436 3052 0
-26 -433 3050 0
-26 -434 3051 0
-26 -435 3052 0
-26 -436 3049 0
-27 -433 3051 0
-27 -434 3052 0
-27 -435 3049 0
-27 -436 3050 0
-28 -433 3052 0
-28 -434 3049 0
-28 -435 3050 0
-28 -436 3051 0
-5 -1525 3053 0
-5 -1526 3054 0
-5 -1527 3055 0
-5 -1528 3056 0
-6 -1525 3054 0
-6 -1526 3055 0
-6 -1527 3056 0
-6 -1528 3053 0
-7 -1525 3055 0
-7 -1526 3056 0
-7 -1527 3053 0
-7 -1528 3054 0
-8 -1525 3056 0
-8 -1526 3053 0
-8 -1527 3054 0
-8 -1528 3055 0
-9 -1017 3057 0
-9 -1018 3058 0
-9 -1019 3059 0
-9 -1020 3060 0
-10 -1017 3058 0
-10 -1018 3059 0
-10 -1019 3060 0
-10 -1020 3057 0
-11 -1017 3059 0
-11 -1018 3060 0
-11 -1019 3057 0
-11 -1020 3058 0
-12 -1017 3060 0
-12 -1018 3057 0
-12 -1019 3058 0
-12 -1020 3059 0
-5 -1529 3061 0
-5 -1530 3062 0
-5 -1531 3063 0
-5 -1532 3064 0
-6 -1529 3062 0
-6 -1530 3063 0
-6 -1531 3064 0
-6 -1532 3061 0
-7 -1529 3063 0
-7 -1530 3064 0
-7 -1531 3061 0
-7 -1532 3062 0
-8 -1529 3064 0
-8 -1530 3061 0
-8 -1531 3062 0
-8 -1532 3063 0
-49 -233 3065 0
-49 -234 3066 0
-49 -235 3067 0
-49 -236 3068 0
-50 -233 3066 0
-50 -234 3067 0
-50 -235 3068 0
-50 -236 3065 0
-51 -233 3067 0
-51 -234 3068 0
-51 -235 3065 0
-51 -236 3066 0
-52 -233 3068 0
-52 -234 3065 0
-52 -235 3066 0
-52 -236 3067 0
-5 -1533 3069 0
-5 -1534 3070 0
-5 -1535 3071 0
-5 -1536 3072 0
-6 -1533 3070 0
-6 -1534 3071 0
-6 -1535 3072 0
-6 -1536 3069 0
-7 -1533 3071 0
-7 -1534 3072 0
-7 -1535 3069 0
-7 -1536 3070 0
-8 -1533 3072 0
-8 -1534 3069 0
-8 -1535 3070 0
-8 -1536 3071 0
3073 3074 3075 3076 0
-3073 -3074 0
-3073 -3075 0
-3073 -3076 0
-3074 -3075 0
-3074 -3076 0
-3075 -3076 0
-5 -1537 3077 0
-5 -1538 3078 0
-5 -1539 3079 0
-5 -1540 3080 0
-6 -1537 3078 0
-6 -1538 3079 0
-6 -1539 3080 0
-6 -1540 3077 0
-7 -1537 3079 0
-7 -1538 3080 0
-7 -1539 3077 0
-7 -1540 3078 0
-8 -1537 3080 0
-8 -1538 3077 0
-8 -1539 3078 0
-8 -1540 3079 0
-9 -1025 3081 0
-9 -1026 3082 0
-9 -1027 3083 0
-9 -1028 3084 0
-10 -1025 3082 0
-10 -1026 3083 0
-10 -1027 3084 0
-10 -1028 3081 0
-11 -1025 3083 0
-11 -1026 3084 0
-11 -1027 3081 0
-11 -1028 3082 0
-12 -1025 3084 0
-12 -1026 3081 0
-12 -1027 3082 0
-12 -1028 3083 0
-5 -1541 3085 0
-5 -1542 3086 0
-5 -1543 3087 0
-5 -1544 3088 0
-6 -1541 3086 0
-6 -1542 3087 0
-6 -1543 3088 0
-6 -1544 3085 0
-7 -1541 3087 0
-7 -1542 3088 0
-7 -1543 3085 0
-7 -1544 3086 0
-8 -1541 3088 0
-8 -1542 3085 0
-8 -1543 3086 0
-8 -1544 3087 0
3089 3090 3091 3092 0
-3089 -3090 0
-3089 -3091 0
-3089 -3092 0
-3090 -3091 0
-3090 -3092 0
-3091 -3092 0
-5 -1545 3093 0
-5 -1546 3094 0
-5 -1547 3095 0
-5 -1548 3096 0
-6 -1545 3094 0
-6 -1546 3095 0
-6 -1547 3096 0
-6 -1548 3093 0
-7 -1545 3095 0
-7 -1546 3096 0
-7 -1547 3093 0
-7 -1548 3094 0
-8 -1545 3096 0
-8 -1546 3093 0
-8 -1547 3094 0
-8 -1548 3095 0
-17 -617 3097 0
-17 -618 3098 0
-17 -619 3099 0
-17 -620 3100 0
-18 -617 3098 0
-18 -618 3099 0
-18 -619 3100 0
-18 -620 3097 0
-19 -617 3099 0
-19 -618 3100 0
-19 -619 3097 0
-19 -620 3098 0
-20 -617 3100 0
-20 -618 3097 0
-20 -619 3098 0
-20 -620 3099 0
-5 -1549 3101 0
-5 -1550 3102 0
-5 -1551 3103 0
-5 -1552 3104 0
-6 -1549 3102 0
-6 -1550 3103 0
-6 -1551 3104 0
-6 -1552 3101 0
-7 -1549 3103 0
-7 -1550 3104 0
-7 -1551 3101 0
-7 -1552 3102 0
-8 -1549 3104 0
-8 -1550 3101 0
-8 -1551 3102 0
-8 -1552 3103 0
-9 -1033 3105 0
-9 -1034 3106 0
-9 -1035 3107 0
-9 -1036 3108 0
-10 -1033 3106 0
-10 -1034 3107 0
-10 -1035 3108 0
-10 -1036 3105 0
-11 -1033 3107 0
-11 -1034 3108 0
-11 -1035 3105 0
-11 -1036 3106 0
-12 -1033 3108 0
-12 -1034 3105 0
-12 -1035 3106 0
-12 -1036 3107 0
-5 -1553 3109 0
-5 -1554 3110 0
-5 -1555 3111 0
-5 -1556 3112 0
-6 -1553 3110 0
-6 -1554 3111 0
-6 -1555 3112 0
-6 -1556 3109 0
-7 -1553 3111 0
-7 -1554 3112 0
-7 -1555 3109 0
-7 -1556 3110 0
-8 -1553 3112 0
-8 -1554 3109 0
-8 -1555 3110 0
-8 -1556 3111 0
-73 -161 3113 0
-73 -162 3114 0
-73 -163 3115 0
-73 -164 3116 0
-74 -161 3114 0
-74 -162 3115 0
-74 -163 3116 0
-74 -164 3113 0
-75 -161 3115 0
-75 -162 3116 0
-75 -163 3113 0
-75 -164 3114 0
-76 -161 3116 0
-76 -162 3113 0
-76 -163 3114 0
-76 -164 3115 0
-5 -1557 3117 0
-5 -1558 3118 0
-5 -1559 3119 0
-5 -1560 3120 0
-6 -1557 3118 0
-6 -1558 3119 0
-6 -1559 3120 0
-6 -1560 3117 0
-7 -1557 3119 0
-7 -1558 3120 0
-7 -1559 3117 0
-7 -1560 3118 0
-8 -1557 3120 0
-8 -1558 3117 0
-8 -1559 3118 0
-8 -1560 3119 0
-41 -281 3121 0
-41 -282 3122 0
-41 -283 3123 0
-41 -284 3124 0
-42 -281 3122 0
-42 -282 3123 0
-42 -283 3124 0
-42 -284 3121 0
-43 -281 3123 0
-43 -282 3124 0
-43 -283 3121 0
-43 -284 3122 0
-44 -281 3124 0
-44 -282 3121 0
-44 -283 3122 0
-44 -284 3123 0
-5 -1561 3125 0
-5 -1562 3126 0
-5 -1563 3127 0
-5 -1564 3128 0
-6 -1561 3126 0
-6 -1562 3127 0
-6 -1563 3128 0
-6 -1564 3125 0
-7 -1561 3127 0
-7 -1562 3128 0
-7 -1563 3125 0
-7 -1564 3126 0
-8 -1561 3128 0
-8 -1562 3125 0
-8 -1563 3126 0
-8 -1564 3127 0
-9 -1041 3129 0
-9 -1042 3130 0
-9 -1043 3131 0
-9 -1044 3132 0
-10 -1041 3130 0
-10 -1042 3131 0
-10 -1043 3132 0
-10 -1044 3129 0
-11 -1041 3131 0
-11 -1042 3132 0
-11 -1043 3129 0
-11 -1044 3130 0
-12 -1041 3132 0
-12 -1042 3129 0
-12 -1043 3130 0
-12 -1044 3131 0
-5 -1565 3133 0
-5 -1566 3134 0
-5 -1567 3135 0
-5 -1568 3136 0
-6 -1565 3134 0
-6 -1566 3135 0
-6 -1567 3136 0
-6 -1568 3133 0
-7 -1565 3135 0
-7 -1566 3136 0
-7 -1567 3133 0
-7 -1568 3134 0
-8 -1565 3136 0
-8 -1566 3133 0
-8 -1567 3134 0
-8 -1568 3135 0
-17 -625 3137 0
-17 -626 3138 0
-17 -627 3139 0
-17 -628 3140 0
-18 -625 3138 0
-18 -626 3139 0
-18 -627 3140 0
-18 -628 3137 0
-19 -625 3139 0
-19 -626 3140 0
-19 -627 3137 0
-19 -628 3138 0
-20 -625 3140 0
-20 -626 3137 0
-20 -627 3138 0
-20 -628 3139 0
-5 -1569 3141 0
-5 -1570 3142 0
-5 -1571 3143 0
-5 -1572 3144 0
-6 -1569 3142 0
-6 -1570 3143 0
-6 -1571 3144 0
-6 -1572 3141 0
-7 -1569 3143 0
-7 -1570 3144 0
-7 -1571 3141 0
-7 -1572 3142 0
-8 -1569 3144 0
-8 -1570 3141 0
-8 -1571 3142 0
-8 -1572 3143 0
3145 3146 3147 3148 0
-3145 -3146 0
-3145 -3147 0
-3145 -3148 0
-3146 -3147 0
-3146 -3148 0
-3147 -3148 0
-5 -1573 3149 0
-5 -1574 3150 0
-5 -1575 3151 0
-5 -1576 3152 0
-6 -1573 3150 0
-6 -1574 3151 0
-6 -1575 3152 0
-6 -1576 3149 0
-7 -1573 3151 0
-7 -1574 3152 0
-7 -1575 3149 0
-7 -1576 3150 0
-8 -1573 3152 0
-8 -1574 3149 0
-8 -1575 3150 0
-8 -1576 3151 0
-9 -1049 3153 0
-9 -1050 3154 0
-9 -1051 3155 0
-9 -1052 3156 0
-10 -1049 3154 0
-10 -1050 3155 0
-10 -1051 3156 0
-10 -1052 3153 0
-11 -1049 3155 0
-11 -1050 3156 0
-11 -1051 3153 0
-11 -1052 3154 0
-12 -1049 3156 0
-12 -1050 3153 0
-12 -1051 3154 0
-12 -1052 3155 0
-5 -1577 3157 0
-5 -1578 3158 0
-5 -1579 3159 0
-5 -1580 3160 0
-6 -1577 3158 0
-6 -1578 3159 0
-6 -1579 3160 0
-6 -1580 3157 0
-7 -1577 3159 0
-7 -1578 3160 0
-7 -1579 3157 0
-7 -1580 3158 0
-8 -1577 3160 0
-8 -1578 3157 0
-8 -1579 3158 0
-8 -1580 3159 0
-25 -449 3161 0
-25 -450 3162 0
-25 -451 3163 0
-25 -452 3164 0
-26 -449 3162 0
-26 -450 3163 0
-26 -451 3164 0
-26 -452 3161 0
-27 -449 3163 0
-27 -450 3164 0
-27 -451 3161 0
-27 -452 3162 0
-28 -449 3164 0
-28 -450 3161 0
-28 -451 3162 0
-28 -452 3163 0
-5 -1581 3165 0
-5 -1582 3166 0
-5 -1583 3167 0
-5 -1584 3168 0
-6 -1581 3166 0
-6 -1582 3167 0
-6 -1583 3168 0
-6 -1584 3165 0
-7 -1581 3167 0
-7 -1582 3168 0
-7 -1583 3165 0
-7 -1584 3166 0
-8 -1581 3168 0
-8 -1582 3165 0
-8 -1583 3166 0
-8 -1584 3167 0
-49 -241 3169 0
-49 -242 3170 0
-49 -243 3171 0
-49 -244 3172 0
-50 -241 3170 0
-50 -242 3171 0
-50 -243 3172 0
-50 -244 3169 0
-51 -241 3171 0
-51 -242 3172 0
-51 -243 3169 0
-51 -244 3170 0
-52 -241 3172 0
-52 -242 3169 0
-52 -243 3170 0
-52 -244 3171 0
-5 -1585 3173 0
-5 -1586 3174 0
-5 -1587 3175 0
-5 -1588 3176 0
-6 -1585 3174 0
-6 -1586 3175 0
-6 -1587 3176 0
-6 -1588 3173 0
-7 -1585 3175 0
-7 -1586 3176 0
-7 -1587 3173 0
-7 -1588 3174 0
-8 -1585 3176 0
-8 -1586 3173 0
-8 -1587 3174 0
-8 -1588 3175 0
-9 -1057 3177 0
-9 -1058 3178 0
-9 -1059 3179 0
-9 -1060 3180 0
-10 -1057 3178 0
-10 -1058 3179 0
-10 -1059 3180 0
-10 -1060 3177 0
-11 -1057 3179 0
-11 -1058 3180 0
-11 -1059 3177 0
-11 -1060 3178 0
-12 -1057 3180 0
-12 -1058 3177 0
-12 -1059 3178 0
-12 -1060 3179 0
-5 -1589 3181 0
-5 -1590 3182 0
-5 -1591 3183 0
-5 -1592 3184 0
-6 -1589 3182 0
-6 -1590 3183 0
-6 -1591 3184 0
-6 -1592 3181 0
-7 -1589 3183 0
-7 -1590 3184 0
-7 -1591 3181 0
-7 -1592 3182 0
-8 -1589 3184 0
-8 -1590 3181 0
-8 -1591 3182 0
-8 -1592 3183 0
3185 3186 3187 3188 0
-3185 -3186 0
-3185 -3187 0
-3185 -3188 0
-3186 -3187 0
-3186 -3188 0
-3187 -3188 0
-5 -1593 3189 0
-5 -1594 3190 0
-5 -1595 3191 0
-5 -1596 3192 0
-6 -1593 3190 0
-6 -1594 3191 0
-6 -1595 3192 0
-6 -1596 3189 0
-7 -1593 3191 0
-7 -1594 3192 0
-7 -1595 3189 0
-7 -1596 3190 0
-8 -1593 3192 0
-8 -1594 3189 0
-8 -1595 3190 0
-8 -1596 3191 0
-65 -185 3193 0
-65 -186 3194 0
-65 -187 3195 0
-65 -188 3196 0
-66 -185 3194 0
-66 -186 3195 0
-66 -187 3196 0
-66 -188 3193 0
-67 -185 3195 0
-67 -186 3196 0
-67 -187 3193 0
-67 -188 3194 0
-68 -185 3196 0
-68 -186 3193 0
-68 -187 3194 0
-68 -188 3195 0
-5 -1597 3197 0
-5 -1598 3198 0
-5 -1599 3199 0
-5 -1600 3200 0
-6 -1597 3198 0
-6 -1598 3199 0
-6 -1599 3200 0
-6 -1600 3197 0
-7 -1597 3199 0
-7 -1598 3200 0
-7 -1599 3197 0
-7 -1600 3198 0
-8 -1597 3200 0
-8 -1598 3197 0
-8 -1599 3198 0
-8 -1600 3199 0
-9 -1065 3201 0
-9 -1066 3202 0
-9 -1067 3203 0
-9 -1068 3204 0
-10 -1065 3202 0
-10 -1066 3203 0
-10 -1067 3204 0
-10 -1068 3201 0
-11 -1065 3203 0
-11 -1066 3204 0
-11 -1067 3201 0
-11 -1068 3202 0
-12 -1065 3204 0
-12 -1066 3201 0
-12 -1067 3202 0
-12 -1068 3203 0
-5 -1601 3205 0
-5 -1602 3206 0
-5 -1603 3207 0
-5 -1604 3208 0
-6 -1601 3206 0
-6 -1602 3207 0
-6 -1603 3208 0
-6 -1604 3205 0
-7 -1601 3207 0
-7 -1602 3208 0
-7 -1603 3205 0
-7 -1604 3206 0
-8 -1601 3208 0
-8 -1602 3205 0
-8 -1603 3206 0
-8 -1604 3207 0
-41 -289 3209 0
-41 -290 3210 0
-41 -291 3211 0
-41 -292 3212 0
-42 -289 3210 0
-42 -290 3211 0
-42 -291 3212 0
-42 -292 3209 0
-43 -289 3211 0
-43 -290 3212 0
-43 -291 3209 0
-43 -292 3210 0
-44 -289 3212 0
-44 -290 3209 0
-44 -291 3210 0
-44 -292 3211 0
-5 -1605 3213 0
-5 -1606 3214 0
-5 -1607 3215 0
-5 -1608 3216 0
-6 -1605 3214 0
-6 -1606 3215 0
-6 -1607 3216 0
-6 -1608 3213 0
-7 -1605 3215 0
-7 -1606 3216 0
-7 -1607 3213 0
-7 -1608 3214 0
-8 -1605 3216 0
-8 -1606 3213 0
-8 -1607 3214 0
-8 -1608 3215 0
-17 -641 3217 0
-17 -642 3218 0
-17 -643 3219 0
-17 -644 3220 0
-18 -641 3218 0
-18 -642 3219 0
-18 -643 3220 0
-18 -644 3217 0
-19 -641 3219 0
-19 -642 3220 0
-19 -643 3217 0
-19 -644 3218 0
-20 -641 3220 0
-20 -642 3217 0
-20 -643 3218 0
-20 -644 3219 0
-5 -1609 3221 0
-5 -1610 3222 0
-5 -1611 3223 0
-5 -1612 3224 0
-6 -1609 3222 0
-6 -1610 3223 0
-6 -1611 3224 0
-6 -1612 3221 0
-7 -1609 3223 0
-7 -1610 3224 0
-7 -1611 3221 0
-7 -1612 3222 0
-8 -1609 3224 0
-8 -1610 3221 0
-8 -1611 3222 0
-8 -1612 3223 0
-9 -1073 3225 0
-9 -1074 3226 0
-9 -1075 3227 0
-9 -1076 3228 0
-10 -1073 3226 0
-10 -1074 3227 0
-10 -1075 3228 0
-10 -1076 3225 0
-11 -1073 3227 0
-11 -1074 3228 0
-11 -1075 3225 0
-11 -1076 3226 0
-12 -1073 3228 0
-12 -1074 3225 0
-12 -1075 3226 0
-12 -1076 3227 0
-5 -1613 3229 0
-5 -1614 3230 0
-5 -1615 3231 0
-5 -1616 3232 0
-6 -1613 3230 0
-6 -1614 3231 0
-6 -1615 3232 0
-6 -1616 3229 0
-7 -1613 3231 0
-7 -1614 3232 0
-7 -1615 3229 0
-7 -1616 3230 0
-8 -1613 3232 0
-8 -1614 3229 0
-8 -1615 3230 0
-8 -1616 3231 0
3233 3234 3235 3236 0
-3233 -3234 0
-3233 -3235 0
-3233 -3236 0
-3234 -3235 0
-3234 -3236 0
-3235 -3236 0
-5 -1617 3237 0
-5 -1618 3238 0
-5 -1619 3239 0
-5 -1620 3240 0
-6 -1617 3238 0
-6 -1618 3239 0
-6 -1619 3240 0
-6 -1620 3237 0
-7 -1617 3239 0
-7 -1618 3240 0
-7 -1619 3237 0
-7 -1620 3238 0
-8 -1617 3240 0
-8 -1618 3237 0
-8 -1619 3238 0
-8 -1620 3239 0
3241 3242 3243 3244 0
-3241 -3242 0
-3241 -3243 0
-3241 -3244 0
-3242 -3243 0
-3242 -3244 0
-3243 -3244 0
-5 -1621 3245 0
-5 -1622 3246 0
-5 -1623 3247 0
-5 -1624 3248 0
-6 -1621 3246 0
-6 -1622 3247 0
-6 -1623 3248 0
-6 -1624 3245 0
-7 -1621 3247 0
-7 -1622 3248 0
-7 -1623 3245 0
-7 -1624 3246 0
-8 -1621 3248 0
-8 -1622 3245 0
-8 -1623 3246 0
-8 -1624 3247 0
-9 -1081 3249 0
-9 -1082 3250 0
-9 -1083 3251 0
-9 -1084 3252 0
-10 -1081 3250 0
-10 -1082 3251 0
-10 -1083 3252 0
-10 -1084 3249 0
-11 -1081 3251 0
-11 -1082 3252 0
-11 -1083 3249 0
-11 -1084 3250 0
-12 -1081 3252 0
-12 -1082 3249 0
-12 -1083 3250 0
-12 -1084 3251 0
-5 -1625 3253 0
-5 -1626 3254 0
-5 -1627 3255 0
-5 -1628 3256 0
-6 -1625 3254 0
-6 -1626 3255 0
-6 -1627 3256 0
-6 -1628 3253 0
-7 -1625 3255 0
-7 -1626 3256 0
-7 -1627 3253 0
-7 -1628 3254 0
-8 -1625 3256 0
-8 -1626 3253 0
-8 -1627 3254 0
-8 -1628 3255 0
-17 -649 3257 0
-17 -650 3258 0
-17 -651 3259 0
-17 -652 3260 0
-18 -649 3258 0
-18 -650 3259 0
-18 -651 3260 0
-18 -652 3257 0
-19 -649 3259 0
-19 -650 3260 0
-19 -651 3257 0
-19 -652 3258 0
-20 -649 3260 0
-20 -650 3257 0
-20 -651 3258 0
-20 -652 3259 0
-5 -1629 3261 0
-5 -1630 3262 0
-5 -1631 3263 0
-5 -1632 3264 0
-6 -1629 3262 0
-6 -1630 3263 0
-6 -1631 3264 0
-6 -1632 3261 0
-7 -1629 3263 0
-7 -1630 3264 0
-7 -1631 3261 0
-7 -1632 3262 0
-8 -1629 3264 0
-8 -1630 3261 0
-8 -1631 3262 0
-8 -1632 3263 0
-73 -169 3265 0
-73 -170 3266 0
-73 -171 3267 0
-73 -172 3268 0
-74 -169 3266 0
-74 -170 3267 0
-74 -171 3268 0
-74 -172 3265 0
-75 -169 3267 0
-75 -170 3268 0
-75 -171 3265 0
-75 -172 3266 0
-76 -169 3268 0
-76 -170 3265 0
-76 -171 3266 0
-76 -172 3267 0
-5 -1633 3269 0
-5 -1634 3270 0
-5 -1635 3271 0
-5 -1636 3272 0
-6 -1633 3270 0
-6 -1634 3271 0
-6 -1635 3272 0
-6 -1636 3269 0
-7 -1633 3271 0
-7 -1634 3272 0
-7 -1635 3269 0
-7 -1636 3270 0
-8 -1633 3272 0
-8 -1634 3269 0
-8 -1635 3270 0
-8 -1636 3271 0
-9 -1089 3273 0
-9 -1090 3274 0
-9 -1091 3275 0
-9 -1092 3276 0
-10 -1089 3274 0
-10 -1090 3275 0
-10 -1091 3276 0
-10 -1092 3273 0
-11 -1089 3275 0
-11 -1090 3276 0
-11 -1091 3273 0
-11 -1092 3274 0
-12 -1089 3276 0
-12 -1090 3273 0
-12 -1091 3274 0
-12 -1092 3275 0
-5 -1637 3277 0
-5 -1638 3278 0
-5 -1639 3279 0
-5 -1640 3280 0
-6 -1637 3278 0
-6 -1638 3279 0
-6 -1639 3280 0
-6 -1640 3277 0
-7 -1637 3279 0
-7 -1638 3280 0
-7 -1639 3277 0
-7 -1640 3278 0
-8 -1637 3280 0
-8 -1638 3277 0
-8 -1639 3278 0
-8 -1640 3279 0
3281 3282 3283 3284 0
-3281 -3282 0
-3281 -3283 0
-3281 -3284 0
-3282 -3283 0
-3282 -3284 0
-3283 -3284 0
-5 -1641 3285 0
-5 -1642 3286 0
-5 -1643 3287 0
-5 -1644 3288 0
-6 -1641 3286 0
-6 -1642 3287 0
-6 -1643 3288 0
-6 -1644 3285 0
-7 -1641 3287 0
-7 -1642 3288 0
-7 -1643 3285 0
-7 -1644 3286 0
-8 -1641 3288 0
-8 -1642 3285 0
-8 -1643 3286 0
-8 -1644 3287 0
3289 3290 3291 3292 0
-3289 -3290 0
-3289 -3291 0
-3289 -3292 0
-3290 -3291 0
-3290 -3292 0
-3291 -3292 0
-5 -1645 3293 0
-5 -1646 3294 0
-5 -1647 3295 0
-5 -1648 3296 0
-6 -1645 3294 0
-6 -1646 3295 0
-6 -1647 3296 0
-6 -1648 3293 0
-7 -1645 3295 0
-7 -1646 3296 0
-7 -1647 3293 0
-7 -1648 3294 0
-8 -1645 3296 0
-8 -1646 3293 0
-8 -1647 3294 0
-8 -1648 3295 0
-9 -1097 3297 0
-9 -1098 3298 0
-9 -1099 3299 0
-9 -1100 3300 0
-10 -1097 3298 0
-10 -1098 3299 0
-10 -1099 3300 0
-10 -1100 3297 0
-11 -1097 3299 0
-11 -1098 3300 0
-11 -1099 3297 0
-11 -1100 3298 0
-12 -1097 3300 0
-12 -1098 3297 0
-12 -1099 3298 0
-12 -1100 3299 0
-5 -1649 3301 0
-5 -1650 3302 0
-5 -1651 3303 0
-5 -1652 3304 0
-6 -1649 3302 0
-6 -1650 3303 0
-6 -1651 3304 0
-6 -1652 3301 0
-7 -1649 3303 0
-7 -1650 3304 0
-7 -1651 3301 0
-7 -1652 3302 0
-8 -1649 3304 0
-8 -1650 3301 0
-8 -1651 3302 0
-8 -1652 3303 0
3305 3306 3307 3308 0
-3305 -3306 0
-3305 -3307 0
-3305 -3308 0
-3306 -3307 0
-3306 -3308 0
-3307 -3308 0
-5 -1653 3309 0
-5 -1654 3310 0
-5 -1655 3311 0
-5 -1656 3312 0
-6 -1653 3310 0
-6 -1654 3311 0
-6 -1655 3312 0
-6 -1656 3309 0
-7 -1653 3311 0
-7 -1654 3312 0
-7 -1655 3309 0
-7 -1656 3310 0
-8 -1653 3312 0
-8 -1654 3309 0
-8 -1655 3310 0
-8 -1656 3311 0
3313 3314 3315 3316 0
-3313 -3314 0
-3313 -3315 0
-3313 -3316 0
-3314 -3315 0
-3314 -3316 0
-3315 -3316 0
-5 -1657 3317 0
-5 -1658 3318 0
-5 -1659 3319 0
-5 -1660 3320 0
-6 -1657 3318 0
-6 -1658 3319 0
-6 -1659 3320 0
-6 -1660 3317 0
-7 -1657 3319 0
-7 -1658 3320 0
-7 -1659 3317 0
-7 -1660 3318 0
-8 -1657 3320 0
-8 -1658 3317 0
-8 -1659 3318 0
-8 -1660 3319 0
-9 -1105 3321 0
-9 -1106 3322 0
-9 -1107 3323 0
-9 -1108 3324 0
-10 -1105 3322 0
-10 -1106 3323 0
-10 -1107 3324 0
-10 -1108 3321 0
-11 -1105 3323 0
-11 -1106 3324 0
-11 -1107 3321 0
-11 -1108 3322 0
-12 -1105 3324 0
-12 -1106 3321 0
-12 -1107 3322 0
-12 -1108 3323 0
-5 -1661 3325 0
-5 -1662 3326 0
-5 -1663 3327 0
-5 -1664 3328 0
-6 -1661 3326 0
-6 -1662 3327 0
-6 -1663 3328 0
-6 -1664 3325 0
-7 -1661 3327 0
-7 -1662 3328 0
-7 -1663 3325 0
-7 -1664 3326 0
-8 -1661 3328 0
-8 -1662 3325 0
-8 -1663 3326 0
-8 -1664 3327 0
-25 -473 3329 0
-25 -474 3330 0
-25 -475 3331 0
-25 -476 3332 0
-26 -473 3330 0
-26 -474 3331 0
-26 -475 3332 0
-26 -476 3329 0
-27 -473 3331 0
-27 -474 3332 0
-27 -475 3329 0
-27 -476 3330 0
-28 -473 3332 0
-28 -474 3329 0
-28 -475 3330 0
-28 -476 3331 0
-5 -1665 3333 0
-5 -1666 3334 0
-5 -1667 3335 0
-5 -1668 3336 0
-6 -1665 3334 0
-6 -1666 3335 0
-6 -1667 3336 0
-6 -1668 3333 0
-7 -1665 3335 0
-7 -1666 3336 0
-7 -1667 3333 0
-7 -1668 3334 0
-8 -1665 3336 0
-8 -1666 3333 0
-8 -1667 3334 0
-8 -1668 3335 0
-17 -665 3337 0
-17 -666 3338 0
-17 -667 3339 0
-17 -668 3340 0
-18 -665 3338 0
-18 -666 3339 0
-18 -667 3340 0
-18 -668 3337 0
-19 -665 3339 0
-19 -666 3340 0
-19 -667 3337 0
-19 -668 3338 0
-20 -665 3340 0
-20 -666 3337 0
-20 -667 3338 0
-20 -668 3339 0
-5 -1669 3341 0
-5 -1670 3342 0
-5 -1671 3343 0
-5 -1672 3344 0
-6 -1669 3342 0
-6 -1670 3343 0
-6 -1671 3344 0
-6 -1672 3341 0
-7 -1669 3343 0
-7 -1670 3344 0
-7 -1671 3341 0
-7 -1672 3342 0
-8 -1669 3344 0
-8 -1670 3341 0
-8 -1671 3342 0
-8 -1672 3343 0
-9 -1113 3345 0
-9 -1114 3346 0
-9 -1115 3347 0
-9 -1116 3348 0
-10 -1113 3346 0
-10 -1114 3347 0
-10 -1115 3348 0
-10 -1116 3345 0
-11 -1113 3347 0
-11 -1114 3348 0
-11 -1115 3345 0
-11 -1116 3346 0
-12 -1113 3348 0
-12 -1114 3345 0
-12 -1115 3346 0
-12 -1116 3347 0
-5 -1673 3349 0
-5 -1674 3350 0
-5 -1675 3351 0
-5 -1676 3352 0
-6 -1673 3350 0
-6 -1674 3351 0
-6 -1675 3352 0
-6 -1676 3349 0
-7 -1673 3351 0
-7 -1674 3352 0
-7 -1675 3349 0
-7 -1676 3350 0
-8 -1673 3352 0
-8 -1674 3349 0
-8 -1675 3350 0
-8 -1676 3351 0
3353 3354 3355 3356 0
-3353 -3354 0
-3353 -3355 0
-3353 -3356 0
-3354 -3355 0
-3354 -3356 0
-3355 -3356 0
-5 -1677 3357 0
-5 -1678 3358 0
-5 -1679 3359 0
-5 -1680 3360 0
-6 -1677 3358 0
-6 -1678 3359 0
-6 -1679 3360 0
-6 -1680 3357 0
-7 -1677 3359 0
-7 -1678 3360 0
-7 -1679 3357 0
-7 -1680 3358 0
-8 -1677 3360 0
-8 -1678 3357 0
-8 -1679 3358 0
-8 -1680 3359 0
-113 -113 3361 0
-113 -114 3362 0
-113 -115 3363 0
-113 -116 3364 0
-114 -113 3362 0
-114 -114 3363 0
-114 -115 3364 0
-114 -116 3361 0
-115 -113 3363 0
-115 -114 3364 0
-115 -115 3361 0
-115 -116 3362 0
-116 -113 3364 0
-116 -114 3361 0
-116 -115 3362 0
-116 -116 3363 0
-5 -1681 3365 0
-5 -1682 3366 0
-5 -1683 3367 0
-5 -1684 3368 0
-6 -1681 3366 0
-6 -1682 3367 0
-6 -1683 3368 0
-6 -1684 3365 0
-7 -1681 3367 0
-7 -1682 3368 0
-7 -1683 3365 0
-7 -1684 3366 0
-8 -1681 3368 0
-8 -1682 3365 0
-8 -1683 3366 0
-8 -1684 3367 0
-9 -1121 3369 0
-9 -1122 3370 0
-9 -1123 3371 0
-9 -1124 3372 0
-10 -1121 3370 0
-10 -1122 3371 0
-10 -1123 3372 0
-10 -1124 3369 0
-11 -1121 3371 0
-11 -1122 3372 0
-11 -1123 3369 0
-11 -1124 3370 0
-12 -1121 3372 0
-12 -1122 3369 0
-12 -1123 3370 0
-12 -1124 3371 0
-5 -1685 3373 0
-5 -1686 3374 0
-5 -1687 3375 0
-5 -1688 3376 0
-6 -1685 3374 0
-6 -1686 3375 0
-6 -1687 3376 0
-6 -1688 3373 0
-7 -1685 3375 0
-7 -1686 3376 0
-7 -1687 3373 0
-7 -1688 3374 0
-8 -1685 3376 0
-8 -1686 3373 0
-8 -1687 3374 0
-8 -1688 3375 0
-17 -673 3377 0
-17 -674 3378 0
-17 -675 3379 0
-17 -676 3380 0
-18 -673 3378 0
-18 -674 3379 0
-18 -675 3380 0
-18 -676 3377 0
-19 -673 3379 0
-19 -674 3380 0
-19 -675 3377 0
-19 -676 3378 0
-20 -673 3380 0
-20 -674 3377 0
-20 -675 3378 0
-20 -676 3379 0
-5 -1689 3381 0
-5 -1690 3382 0
-5 -1691 3383 0
-5 -1692 3384 0
-6 -1689 3382 0
-6 -1690 3383 0
-6 -1691 3384 0
-6 -1692 3381 0
-7 -1689 3383 0
-7 -1690 3384 0
-7 -1691 3381 0
-7 -1692 3382 0
-8 -1689 3384 0
-8 -1690 3381 0
-8 -1691 3382 0
-8 -1692 3383 0
-25 -481 3385 0
-25 -482 3386 0
-25 -483 3387 0
-25 -484 3388 0
-26 -481 3386 0
-26 -482 3387 0
-26 -483 3388 0
-26 -484 3385 0
-27 -481 3387 0
-27 -482 3388 0
-27 -483 3385 0
-27 -484 3386 0
-28 -481 3388 0
-28 -482 3385 0
-28 -483 3386 0
-28 -484 3387 0
-5 -1693 3389 0
-5 -1694 3390 0
-5 -1695 3391 0
-5 -1696 3392 0
-6 -1693 3390 0
-6 -1694 3391 0
-6 -1695 3392 0
-6 -1696 3389 0
-7 -1693 3391 0
-7 -1694 3392 0
-7 -1695 3389 0
-7 -1696 3390 0
-8 -1693 3392 0
-8 -1694 3389 0
-8 -1695 3390 0
-8 -1696 3391 0
-9 -1129 3393 0
-9 -1130 3394 0
-9 -1131 3395 0
-9 -1132 3396 0
-10 -1129 3394 0
-10 -1130 3395 0
-10 -1131 3396 0
-10 -1132 3393 0
-11 -1129 3395 0
-11 -1130 3396 0
-11 -1131 3393 0
-11 -1132 3394 0
-12 -1129 3396 0
-12 -1130 3393 0
-12 -1131 3394 0
-12 -1132 3395 0
-5 -1697 3397 0
-5 -1698 3398 0
-5 -1699 3399 0
-5 -1700 3400 0
-6 -1697 3398 0
-6 -1698 3399 0
-6 -1699 3400 0
-6 -1700 3397 0
-7 -1697 3399 0
-7 -1698 3400 0
-7 -1699 3397 0
-7 -1700 3398 0
-8 -1697 3400 0
-8 -1698 3397 0
-8 -1699 3398 0
-8 -1700 3399 0
-89 -145 3401 0
-89 -146 3402 0
-89 -147 3403 0
-89 -148 3404 0
-90 -145 3402 0
-90 -146 3403 0
-90 -147 3404 0
-90 -148 3401 0
-91 -145 3403 0
-91 -146 3404 0
-91 -147 3401 0
-91 -148 3402 0
-92 -145 3404 0
-92 -146 3401 0
-92 -147 3402 0
-92 -148 3403 0
-5 -1701 3405 0
-5 -1702 3406 0
-5 -1703 3407 0
-5 -1704 3408 0
-6 -1701 3406 0
-6 -1702 3407 0
-6 -1703 3408 0
-6 -1704 3405 0
-7 -1701 3407 0
-7 -1702 3408 0
-7 -1703 3405 0
-7 -1704 3406 0
-8 -1701 3408 0
-8 -1702 3405 0
-8 -1703 3406 0
-8 -1704 3407 0
3409 3410 3411 3412 0
-3409 -3410 0
-3409 -3411 0
-3409 -3412 0
-3410 -3411 0
-3410 -3412 0
-3411 -3412 0
-5 -1705 3413 0
-5 -1706 3414 0
-5 -1707 3415 0
-5 -1708 3416 0
-6 -1705 3414 0
-6 -1706 3415 0
-6 -1707 3416 0
-6 -1708 3413 0
-7 -1705 3415 0
-7 -1706 3416 0
-7 -1707 3413 0
-7 -1708 3414 0
-8 -1705 3416 0
-8 -1706 3413 0
-8 -1707 3414 0
-8 -1708 3415 0
-9 -1137 3417 0
-9 -1138 3418 0
-9 -1139 3419 0
-9 -1140 3420 0
-10 -1137 3418 0
-10 -1138 3419 0
-10 -1139 3420 0
-10 -1140 3417 0
-11 -1137 3419 0
-11 -1138 3420 0
-11 -1139 3417 0
-11 -1140 3418 0
-12 -1137 3420 0
-12 -1138 3417 0
-12 -1139 3418 0
-12 -1140 3419 0
-5 -1709 3421 0
-5 -1710 3422 0
-5 -1711 3423 0
-5 -1712 3424 0
-6 -1709 3422 0
-6 -1710 3423 0
-6 -1711 3424 0
-6 -1712 3421 0
-7 -1709 3423 0
-7 -1710 3424 0
-7 -1711 3421 0
-7 -1712 3422 0
-8 -1709 3424 0
-8 -1710 3421 0
-8 -1711 3422 0
-8 -1712 3423 0
3425 3426 3427 3428 0
-3425 -3426 0
-3425 -3427 0
-3425 -3428 0
-3426 -3427 0
-3426 -3428 0
-3427 -3428 0
-5 -1713 3429 0
-5 -1714 3430 0
-5 -1715 3431 0
-5 -1716 3432 0
-6 -1713 3430 0
-6 -1714 3431 0
-6 -1715 3432 0
-6 -1716 3429 0
-7 -1713 3431 0
-7 -1714 3432 0
-7 -1715 3429 0
-7 -1716 3430 0
-8 -1713 3432 0
-8 -1714 3429 0
-8 -1715 3430 0
-8 -1716 3431 0
3433 3434 3435 3436 0
-3433 -3434 0
-3433 -3435 0
-3433 -3436 0
-3434 -3435 0
-3434 -3436 0
-3435 -3436 0
-5 -1717 3437 0
-5 -1718 3438 0
-5 -1719 3439 0
-5 -1720 3440 0
-6 -1717 3438 0
-6 -1718 3439 0
-6 -1719 3440 0
-6 -1720 3437 0
-7 -1717 3439 0
-7 -1718 3440 0
-7 -1719 3437 0
-7 -1720 3438 0
-8 -1717 3440 0
-8 -1718 3437 0
-8 -1719 3438 0
-8 -1720 3439 0
-9 -1145 3441 0
-9 -1146 3442 0
-9 -1147 3443 0
-9 -1148 3444 0
-10 -1145 3442 0
-10 -1146 3443 0
-10 -1147 3444 0
-10 -1148 3441 0
-11 -1145 3443 0
-11 -1146 3444 0
-11 -1147 3441 0
-11 -1148 3442 0
-12 -1145 3444 0
-12 -1146 3441 0
-12 -1147 3442 0
-12 -1148 3443 0
-5 -1721 3445 0
-5 -1722 3446 0
-5 -1723 3447 0
-5 -1724 3448 0
-6 -1721 3446 0
-6 -1722 3447 0
-6 -1723 3448 0
-6 -1724 3445 0
-7 -1721 3447 0
-7 -1722 3448 0
-7 -1723 3445 0
-7 -1724 3446 0
-8 -1721 3448 0
-8 -1722 3445 0
-8 -1723 3446 0
-8 -1724 3447 0
3449 3450 3451 3452 0
-3449 -3450 0
-3449 -3451 0
-3449 -3452 0
-3450 -3451 0
-3450 -3452 0
-3451 -3452 0
-5 -1725 3453 0
-5 -1726 3454 0
-5 -1727 3455 0
-5 -1728 3456 0
-6 -1725 3454 0
-6 -1726 3455 0
-6 -1727 3456 0
-6 -1728 3453 0
-7 -1725 3455 0
-7 -1726 3456 0
-7 -1727 3453 0
-7 -1728 3454 0
-8 -1725 3456 0
-8 -1726 3453 0
-8 -1727 3454 0
-8 -1728 3455 0
-17 -689 3457 0
-17 -690 3458 0
-17 -691 3459 0
-17 -692 3460 0
-18 -689 3458 0
-18 -690 3459 0
-18 -691 3460 0
-18 -692 3457 0
-19 -689 3459 0
-19 -690 3460 0
-19 -691 3457 0
-19 -692 3458 0
-20 -689 3460 0
-20 -690 3457 0
-20 -691 3458 0
-20 -692 3459 0
-5 -1729 3461 0
-5 -1730 3462 0
-5 -1731 3463 0
-5 -1732 3464 0
-6 -1729 3462 0
-6 -1730 3463 0
-6 -1731 3464 0
-6 -1732 3461 0
-7 -1729 3463 0
-7 -1730 3464 0
-7 -1731 3461 0
-7 -1732 3462 0
-8 -1729 3464 0
-8 -1730 3461 0
-8 -1731 3462 0
-8 -1732 3463 0
-9 -1153 3465 0
-9 -1154 3466 0
-9 -1155 3467 0
-9 -1156 3468 0
-10 -1153 3466 0
-10 -1154 3467 0
-10 -1155 3468 0
-10 -1156 3465 0
-11 -1153 3467 0
-11 -1154 3468 0
-11 -1155 3465 0
-11 -1156 3466 0
-12 -1153 3468 0
-12 -1154 3465 0
-12 -1155 3466 0
-12 -1156 3467 0
-5 -1733 3469 0
-5 -1734 3470 0
-5 -1735 3471 0
-5 -1736 3472 0
-6 -1733 3470 0
-6 -1734 3471 0
-6 -1735 3472 0
-6 -1736 3469 0
-7 -1733 3471 0
-7 -1734 3472 0
-7 -1735 3469 0
-7 -1736 3470 0
-8 -1733 3472 0
-8 -1734 3469 0
-8 -1735 3470 0
-8 -1736 3471 0
-41 -313 3473 0
-41 -314 3474 0
-41 -315 3475 0
-41 -316 3476 0
-42 -313 3474 0
-42 -314 3475 0
-42 -315 3476 0
-42 -316 3473 0
-43 -313 3475 0
-43 -314 3476 0
-43 -315 3473 0
-43 -316 3474 0
-44 -313 3476 0
-44 -314 3473 0
-44 -315 3474 0
-44 -316 3475 0
-5 -1737 3477 0
-5 -1738 3478 0
-5 -1739 3479 0
-5 -1740 3480 0
-6 -1737 3478 0
-6 -1738 3479 0
-6 -1739 3480 0
-6 -1740 3477 0
-7 -1737 3479 0
-7 -1738 3480 0
-7 -1739 3477 0
-7 -1740 3478 0
-8 -1737 3480 0
-8 -1738 3477 0
-8 -1739 3478 0
-8 -1740 3479 0
-49 -265 3481 0
-49 -266 3482 0
-49 -267 3483 0
-49 -268 3484 0
-50 -265 3482 0
-50 -266 3483 0
-50 -267 3484 0
-50 -268 3481 0
-51 -265 3483 0
-51 -266 3484 0
-51 -267 3481 0
-51 -268 3482 0
-52 -265 3484 0
-52 -266 3481 0
-52 -267 3482 0
-52 -268 3483 0
-5 -1741 3485 0
-5 -1742 3486 0
-5 -1743 3487 0
-5 -1744 3488 0
-6 -1741 3486 0
-6 -1742 3487 0
-6 -1743 3488 0
-6 -1744 3485 0
-7 -1741 3487 0
-7 -1742 3488 0
-7 -1743 3485 0
-7 -1744 3486 0
-8 -1741 3488 0
-8 -1742 3485 0
-8 -1743 3486 0
-8 -1744 3487 0
-9 -1161 3489 0
-9 -1162 3490 0
-9 -1163 3491 0
-9 -1164 3492 0
-10 -1161 3490 0
-10 -1162 3491 0
-10 -1163 3492 0
-10 -1164 3489 0
-11 -1161 3491 0
-11 -1162 3492 0
-11 -1163 3489 0
-11 -1164 3490 0
-12 -1161 3492 0
-12 -1162 3489 0
-12 -1163 3490 0
-12 -1164 3491 0
-5 -1745 3493 0
-5 -1746 3494 0
-5 -1747 3495 0
-5 -1748 3496 0
-6 -1745 3494 0
-6 -1746 3495 0
-6 -1747 3496 0
-6 -1748 3493 0
-7 -1745 3495 0
-7 -1746 3496 0
-7 -1747 3493 0
-7 -1748 3494 0
-8 -1745 3496 0
-8 -1746 3493 0
-8 -1747 3494 0
-8 -1748 3495 0
-17 -697 3497 0
-17 -698 3498 0
-17 -699 3499 0
-17 -700 3500 0
-18 -697 3498 0
-18 -698 3499 0
-18 -699 3500 0
-18 -700 3497 0
-19 -697 3499 0
-19 -698 3500 0
-19 -699 3497 0
-19 -700 3498 0
-20 -697 3500 0
-20 -698 3497 0
-20 -699 3498 0
-20 -700 3499 0
-5 -1749 3501 0
-5 -1750 3502 0
-5 -1751 3503 0
-5 -1752 3504 0
-6 -1749 3502 0
-6 -1750 3503 0
-6 -1751 3504 0
-6 -1752 3501 0
-7 -1749 3503 0
-7 -1750 3504 0
-7 -1751 3501 0
-7 -1752 3502 0
-8 -1749 3504 0
-8 -1750 3501 0
-8 -1751 3502 0
-8 -1752 3503 0
3505 3506 3507 3508 0
-3505 -3506 0
-3505 -3507 0
-3505 -3508 0
-3506 -3507 0
-3506 -3508 0
-3507 -3508 0
-5 -1753 3509 0
-5 -1754 3510 0
-5 -1755 3511 0
-5 -1756 3512 0
-6 -1753 3510 0
-6 -1754 3511 0
-6 -1755 3512 0
-6 -1756 3509 0
-7 -1753 3511 0
-7 -1754 3512 0
-7 -1755 3509 0
-7 -1756 3510 0
-8 -1753 3512 0
-8 -1754 3509 0
-8 -1755 3510 0
-8 -1756 3511 0
-9 -1169 3513 0
-9 -1170 3514 0
-9 -1171 3515 0
-9 -1172 3516 0
-10 -1169 3514 0
-10 -1170 3515 0
-10 -1171 3516 0
-10 -1172 3513 0
-11 -1169 3515 0
-11 -1170 3516 0
-11 -1171 3513 0
-11 -1172 3514 0
-12 -1169 3516 0
-12 -1170 3513 0
-12 -1171 3514 0
-12 -1172 3515 0
-5 -1757 3517 0
-5 -1758 3518 0
-5 -1759 3519 0
-5 -1760 3520 0
-6 -1757 3518 0
-6 -1758 3519 0
-6 -1759 3520 0
-6 -1760 3517 0
-7 -1757 3519 0
-7 -1758 3520 0
-7 -1759 3517 0
-7 -1760 3518 0
-8 -1757 3520 0
-8 -1758 3517 0
-8 -1759 3518 0
-8 -1760 3519 0
3521 3522 3523 3524 0
-3521 -3522 0
-3521 -3523 0
-3521 -3524 0
-3522 -3523 0
-3522 -3524 0
-3523 -3524 0
-5 -1761 3525 0
-5 -1762 3526 0
-5 -1763 3527 0
-5 -1764 3528 0
-6 -1761 3526 0
-6 -1762 3527 0
-6 -1763 3528 0
-6 -1764 3525 0
-7 -1761 3527 0
-7 -1762 3528 0
-7 -1763 3525 0
-7 -1764 3526 0
-8 -1761 3528 0
-8 -1762 3525 0
-8 -1763 3526 0
-8 -1764 3527 0
3529 3530 3531 3532 0
-3529 -3530 0
-3529 -3531 0
-3529 -3532 0
-3530 -3531 0
-3530 -3532 0
-3531 -3532 0
-5 -1765 3533 0
-5 -1766 3534 0
-5 -1767 3535 0
-5 -1768 3536 0
-6 -1765 3534 0
-6 -1766 3535 0
-6 -1767 3536 0
-6 -1768 3533 0
-7 -1765 3535 0
-7 -1766 3536 0
-7 -1767 3533 0
-7 -1768 3534 0
-8 -1765 3536 0
-8 -1766 3533 0
-8 -1767 3534 0
-8 -1768 3535 0
-9 -1177 3537 0
-9 -1178 3538 0
-9 -1179 3539 0
-9 -1180 3540 0
-10 -1177 3538 0
-10 -1178 3539 0
-10 -1179 3540 0
-10 -1180 3537 0
-11 -1177 3539 0
-11 -1178 3540 0
-11 -1179 3537 0
-11 -1180 3538 0
-12 -1177 3540 0
-12 -1178 3537 0
-12 -1179 3538 0
-12 -1180 3539 0
-5 -1769 3541 0
-5 -1770 3542 0
-5 -1771 3543 0
-5 -1772 3544 0
-6 -1769 3542 0
-6 -1770 3543 0
-6 -1771 3544 0
-6 -1772 3541 0
-7 -1769 3543 0
-7 -1770 3544 0
-7 -1771 3541 0
-7 -1772 3542 0
-8 -1769 3544 0
-8 -1770 3541 0
-8 -1771 3542 0
-8 -1772 3543 0
3545 3546 3547 3548 0
-3545 -3546 0
-3545 -3547 0
-3545 -3548 0
-3546 -3547 0
-3546 -3548 0
-3547 -3548 0
-5 -1773 3549 0
-5 -1774 3550 0
-5 -1775 3551 0
-5 -1776 3552 0
-6 -1773 3550 0
-6 -1774 3551 0
-6 -1775 3552 0
-6 -1776 3549 0
-7 -1773 3551 0
-7 -1774 3552 0
-7 -1775 3549 0
-7 -1776 3550 0
-8 -1773 3552 0
-8 -1774 3549 0
-8 -1775 3550 0
-8 -1776 3551 0
-25 -505 3553 0
-25 -506 3554 0
-25 -507 3555 0
-25 -508 3556 0
-26 -505 3554 0
-26 -506 3555 0
-26 -507 3556 0
-26 -508 3553 0
-27 -505 3555 0
-27 -506 3556 0
-27 -507 3553 0
-27 -508 3554 0
-28 -505 3556 0
-28 -506 3553 0
-28 -507 3554 0
-28 -508 3555 0
-5 -1777 3557 0
-5 -1778 3558 0
-5 -1779 3559 0
-5 -1780 3560 0
-6 -1777 3558 0
-6 -1778 3559 0
-6 -1779 3560 0
-6 -1780 3557 0
-7 -1777 3559 0
-7 -1778 3560 0
-7 -1779 3557 0
-7 -1780 3558 0
-8 -1777 3560 0
-8 -1778 3557 0
-8 -1779 3558 0
-8 -1780 3559 0
-9 -1185 3561 0
-9 -1186 3562 0
-9 -1187 3563 0
-9 -1188 3564 0
-10 -1185 3562 0
-10 -1186 3563 0
-10 -1187 3564 0
-10 -1188 3561 0
-11 -1185 3563 0
-11 -1186 3564 0
-11 -1187 3561 0
-11 -1188 3562 0
-12 -1185 3564 0
-12 -1186 3561 0
-12 -1187 3562 0
-12 -1188 3563 0
-5 -1781 3565 0
-5 -1782 3566 0
-5 -1783 3567 0
-5 -1784 3568 0
-6 -1781 3566 0
-6 -1782 3567 0
-6 -1783 3568 0
-6 -1784 3565 0
-7 -1781 3567 0
-7 -1782 3568 0
-7 -1783 3565 0
-7 -1784 3566 0
-8 -1781 3568 0
-8 -1782 3565 0
-8 -1783 3566 0
-8 -1784 3567 0
-73 -185 3569 0
-73 -186 3570 0
-73 -187 3571 0
-73 -188 3572 0
-74 -185 3570 0
-74 -186 3571 0
-74 -187 3572 0
-74 -188 3569 0
-75 -185 3571 0
-75 -186 3572 0
-75 -187 3569 0
-75 -188 3570 0
-76 -185 3572 0
-76 -186 3569 0
-76 -187 3570 0
-76 -188 3571 0
-5 -1785 3573 0
-5 -1786 3574 0
-5 -1787 3575 0
-5 -1788 3576 0
-6 -1785 3574 0
-6 -1786 3575 0
-6 -1787 3576 0
-6 -1788 3573 0
-7 -1785 3575 0
-7 -1786 3576 0
-7 -1787 3573 0
-7 -1788 3574 0
-8 -1785 3576 0
-8 -1786 3573 0
-8 -1787 3574 0
-8 -1788 3575 0
-17 -713 3577 0
-17 -714 3578 0
-17 -715 3579 0
-17 -716 3580 0
-18 -713 3578 0
-18 -714 3579 0
-18 -715 3580 0
-18 -716 3577 0
-19 -713 3579 0
-19 -714 3580 0
-19 -715 3577 0
-19 -716 3578 0
-20 -713 3580 0
-20 -714 3577 0
-20 -715 3578 0
-20 -716 3579 0
-5 -1789 3581 0
-5 -1790 3582 0
-5 -1791 3583 0
-5 -1792 3584 0
-6 -1789 3582 0
-6 -1790 3583 0
-6 -1791 3584 0
-6 -1792 3581 0
-7 -1789 3583 0
-7 -1790 3584 0
-7 -1791 3581 0
-7 -1792 3582 0
-8 -1789 3584 0
-8 -1790 3581 0
-8 -1791 3582 0
-8 -1792 3583 0
-9 -1193 3585 0
-9 -1194 3586 0
-9 -1195 3587 0
-9 -1196 3588 0
-10 -1193 3586 0
-10 -1194 3587 0
-10 -1195 3588 0
-10 -1196 3585 0
-11 -1193 3587 0
-11 -1194 3588 0
-11 -1195 3585 0
-11 -1196 3586 0
-12 -1193 3588 0
-12 -1194 3585 0
-12 -1195 3586 0
-12 -1196 3587 0
-5 -1793 3589 0
-5 -1794 3590 0
-5 -1795 3591 0
-5 -1796 3592 0
-6 -1793 3590 0
-6 -1794 3591 0
-6 -1795 3592 0
-6 -1796 3589 0
-7 -1793 3591 0
-7 -1794 3592 0
-7 -1795 3589 0
-7 -1796 3590 0
-8 -1793 3592 0
-8 -1794 3589 0
-8 -1795 3590 0
-8 -1796 3591 0
-113 -121 3593 0
-113 -122 3594 0
-113 -123 3595 0
-113 -124 3596 0
-114 -121 3594 0
-114 -122 3595 0
-114 -123 3596 0
-114 -124 3593 0
-115 -121 3595 0
-115 -122 3596 0
-115 -123 3593 0
-115 -124 3594 0
-116 -121 3596 0
-116 -122 3593 0
-116 -123 3594 0
-116 -124 3595 0
-5 -1797 3597 0
-5 -1798 3598 0
-5 -1799 3599 0
-5 -1800 3600 0
-6 -1797 3598 0
-6 -1798 3599 0
-6 -1799 3600 0
-6 -1800 3597 0
-7 -1797 3599 0
-7 -1798 3600 0
-7 -1799 3597 0
-7 -1800 3598 0
-8 -1797 3600 0
-8 -1798 3597 0
-8 -1799 3598 0
-8 -1800 3599 0
-65 -209 3601 0
-65 -210 3602 0
-65 -211 3603 0
-65 -212 3604 0
-66 -209 3602 0
-66 -210 3603 0
-66 -211 3604 0
-66 -212 3601 0
-67 -209 3603 0
-67 -210 3604 0
-67 -211 3601 0
-67 -212 3602 0
-68 -209 3604 0
-68 -210 3601 0
-68 -211 3602 0
-68 -212 3603 0
-5 -1801 3605 0
-5 -1802 3606 0
-5 -1803 3607 0
-5 -1804 3608 0
-6 -1801 3606 0
-6 -1802 3607 0
-6 -1803 3608 0
-6 -1804 3605 0
-7 -1801 3607 0
-7 -1802 3608 0
-7 -1803 3605 0
-7 -1804 3606 0
-8 -1801 3608 0
-8 -1802 3605 0
-8 -1803 3606 0
-8 -1804 3607 0
-9 -1201 3609 0
-9 -1202 3610 0
-9 -1203 3611 0
-9 -1204 3612 0
-10 -1201 3610 0
-10 -1202 3611 0
-10 -1203 3612 0
-10 -1204 3609 0
-11 -1201 3611 0
-11 -1202 3612 0
-11 -1203 3609 0
-11 -1204 3610 0
-12 -1201 3612 0
-12 -1202 3609 0
-12 -1203 3610 0
-12 -1204 3611 0
-5 -1805 3613 0
-5 -1806 3614 0
-5 -1807 3615 0
-5 -1808 3616 0
-6 -1805 3614 0
-6 -1806 3615 0
-6 -1807 3616 0
-6 -1808 3613 0
-7 -1805 3615 0
-7 -1806 3616 0
-7 -1807 3613 0
-7 -1808 3614 0
-8 -1805 3616 0
-8 -1806 3613 0
-8 -1807 3614 0
-8 -1808 3615 0
-17 -721 3617 0
-17 -722 3618 0
-17 -723 3619 0
-17 -724 3620 0
-18 -721 3618 0
-18 -722 3619 0
-18 -723 3620 0
-18 -724 3617 0
-19 -721 3619 0
-19 -722 3620 0
-19 -723 3617 0
-19 -724 3618 0
-20 -721 3620 0
-20 -722 3617 0
-20 -723 3618 0
-20 -724 3619 0
-5 -1809 3621 0
-5 -1810 3622 0
-5 -1811 3623 0
-5 -1812 3624 0
-6 -1809 3622 0
-6 -1810 3623 0
-6 -1811 3624 0
-6 -1812 3621 0
-7 -1809 3623 0
-7 -1810 3624 0
-7 -1811 3621 0
-7 -1812 3622 0
-8 -1809 3624 0
-8 -1810 3621 0
-8 -1811 3622 0
-8 -1812 3623 0
3625 3626 3627 3628 0
-3625 -3626 0
-3625 -3627 0
-3625 -3628 0
-3626 -3627 0
-3626 -3628 0
-3627 -3628 0
-5 -1813 3629 0
-5 -1814 3630 0
-5 -1815 3631 0
-5 -1816 3632 0
-6 -1813 3630 0
-6 -1814 3631 0
-6 -1815 3632 0
-6 -1816 3629 0
-7 -1813 3631 0
-7 -1814 3632 0
-7 -1815 3629 0
-7 -1816 3630 0
-8 -1813 3632 0
-8 -1814 3629 0
-8 -1815 3630 0
-8 -1816 3631 0
-9 -1209 3633 0
-9 -1210 3634 0
-9 -1211 3635 0
-9 -1212 3636 0
-10 -1209 3634 0
-10 -1210 3635 0
-10 -1211 3636 0
-10 -1212 3633 0
-11 -1209 3635 0
-11 -1210 3636 0
-11 -1211 3633 0
-11 -1212 3634 0
-12 -1209 3636 0
-12 -1210 3633 0
-12 -1211 3634 0
-12 -1212 3635 0
-5 -1817 3637 0
-5 -1818 3638 0
-5 -1819 3639 0
-5 -1820 3640 0
-6 -1817 3638 0
-6 -1818 3639 0
-6 -1819 3640 0
-6 -1820 3637 0
-7 -1817 3639 0
-7 -1818 3640 0
-7 -1819 3637 0
-7 -1820 3638 0
-8 -1817 3640 0
-8 -1818 3637 0
-8 -1819 3638 0
-8 -1820 3639 0
3641 3642 3643 3644 0
-3641 -3642 0
-3641 -3643 0
-3641 -3644 0
-3642 -3643 0
-3642 -3644 0
-3643 -3644 0
-5 -1821 3645 0
-5 -1822 3646 0
-5 -1823 3647 0
-5 -1824 3648 0
-6 -1821 3646 0
-6 -1822 3647 0
-6 -1823 3648 0
-6 -1824 3645 0
-7 -1821 3647 0
-7 -1822 3648 0
-7 -1823 3645 0
-7 -1824 3646 0
-8 -1821 3648 0
-8 -1822 3645 0
-8 -1823 3646 0
-8 -1824 3647 0
-41 -329 3649 0
-41 -330 3650 0
-41 -331 3651 0
-41 -332 3652 0
-42 -329 3650 0
-42 -330 3651 0
-42 -331 3652 0
-42 -332 3649 0
-43 -329 3651 0
-43 -330 3652 0
-43 -331 3649 0
-43 -332 3650 0
-44 -329 3652 0
-44 -330 3649 0
-44 -331 3650 0
-44 -332 3651 0
-5 -1825 3653 0
-5 -1826 3654 0
-5 -1827 3655 0
-5 -1828 3656 0
-6 -1825 3654 0
-6 -1826 3655 0
-6 -1827 3656 0
-6 -1828 3653 0
-7 -1825 3655 0
-7 -1826 3656 0
-7 -1827 3653 0
-7 -1828 3654 0
-8 -1825 3656 0
-8 -1826 3653 0
-8 -1827 3654 0
-8 -1828 3655 0
-9 -1217 3657 0
-9 -1218 3658 0
-9 -1219 3659 0
-9 -1220 3660 0
-10 -1217 3658 0
-10 -1218 3659 0
-10 -1219 3660 0
-10 -1220 3657 0
-11 -1217 3659 0
-11 -1218 3660 0
-11 -1219 3657 0
-11 -1220 3658 0
-12 -1217 3660 0
-12 -1218 3657 0
-12 -1219 3658 0
-12 -1220 3659 0
-5 -1829 3661 0
-5 -1830 3662 0
-5 -1831 3663 0
-5 -1832 3664 0
-6 -1829 3662 0
-6 -1830 3663 0
-6 -1831 3664 0
-6 -1832 3661 0
-7 -1829 3663 0
-7 -1830 3664 0
-7 -1831 3661 0
-7 -1832 3662 0
-8 -1829 3664 0
-8 -1830 3661 0
-8 -1831 3662 0
-8 -1832 3663 0
-25 -521 3665 0
-25 -522 3666 0
-25 -523 3667 0
-25 -524 3668 0
-26 -521 3666 0
-26 -522 3667 0
-26 -523 3668 0
-26 -524 3665 0
-27 -521 3667 0
-27 -522 3668 0
-27 -523 3665 0
-27 -524 3666 0
-28 -521 3668 0
-28 -522 3665 0
-28 -523 3666 0
-28 -524 3667 0
-5 -1833 3669 0
-5 -1834 3670 0
-5 -1835 3671 0
-5 -1836 3672 0
-6 -1833 3670 0
-6 -1834 3671 0
-6 -1835 3672 0
-6 -1836 3669 0
-7 -1833 3671 0
-7 -1834 3672 0
-7 -1835 3669 0
-7 -1836 3670 0
-8 -1833 3672 0
-8 -1834 3669 0
-8 -1835 3670 0
-8 -1836 3671 0
3673 3674 3675 3676 0
-3673 -3674 0
-3673 -3675 0
-3673 -3676 0
-3674 -3675 0
-3674 -3676 0
-3675 -3676 0
-5 -1837 3677 0
-5 -1838 3678 0
-5 -1839 3679 0
-5 -1840 3680 0
-6 -1837 3678 0
-6 -1838 3679 0
-6 -1839 3680 0
-6 -1840 3677 0
-7 -1837 3679 0
-7 -1838 3680 0
-7 -1839 3677 0
-7 -1840 3678 0
-8 -1837 3680 0
-8 -1838 3677 0
-8 -1839 3678 0
-8 -1840 3679 0
-9 -1225 3681 0
-9 -1226 3682 0
-9 -1227 3683 0
-9 -1228 3684 0
-10 -1225 3682 0
-10 -1226 3683 0
-10 -1227 3684 0
-10 -1228 3681 0
-11 -1225 3683 0
-11 -1226 3684 0
-11 -1227 3681 0
-11 -1228 3682 0
-12 -1225 3684 0
-12 -1226 3681 0
-12 -1227 3682 0
-12 -1228 3683 0
-5 -1841 3685 0
-5 -1842 3686 0
-5 -1843 3687 0
-5 -1844 3688 0
-6 -1841 3686 0
-6 -1842 3687 0
-6 -1843 3688 0
-6 -1844 3685 0
-7 -1841 3687 0
-7 -1842 3688 0
-7 -1843 3685 0
-7 -1844 3686 0
-8 -1841 3688 0
-8 -1842 3685 0
-8 -1843 3686 0
-8 -1844 3687 0
-49 -281 3689 0
-49 -282 3690 0
-49 -283 3691 0
-49 -284 3692 0
-50 -281 3690 0
-50 -282 3691 0
-50 -283 3692 0
-50 -284 3689 0
-51 -281 3691 0
-51 -282 3692 0
-51 -283 3689 0
-51 -284 3690 0
-52 -281 3692 0
-52 -282 3689 0
-52 -283 3690 0
-52 -284 3691 0
-5 -1845 3693 0
-5 -1846 3694 0
-5 -1847 3695 0
-5 -1848 3696 0
-6 -1845 3694 0
-6 -1846 3695 0
-6 -1847 3696 0
-6 -1848 3693 0
-7 -1845 3695 0
-7 -1846 3696 0
-7 -1847 3693 0
-7 -1848 3694 0
-8 -1845 3696 0
-8 -1846 3693 0
-8 -1847 3694 0
-8 -1848 3695 0
-17 -737 3697 0
-17 -738 3698 0
-17 -739 3699 0
-17 -740 3700 0
-18 -737 3698 0
-18 -738 3699 0
-18 -739 3700 0
-18 -740 3697 0
-19 -737 3699 0
-19 -738 3700 0
-19 -739 3697 0
-19 -740 3698 0
-20 -737 3700 0
-20 -738 3697 0
-20 -739 3698 0
-20 -740 3699 0
-5 -1849 3701 0
-5 -1850 3702 0
-5 -1851 3703 0
-5 -1852 3704 0
-6 -1849 3702 0
-6 -1850 3703 0
-6 -1851 3704 0
-6 -1852 3701 0
-7 -1849 3703 0
-7 -1850 3704 0
-7 -1851 3701 0
-7 -1852 3702 0
-8 -1849 3704 0
-8 -1850 3701 0
-8 -1851 3702 0
-8 -1852 3703 0
-9 -1233 3705 0
-9 -1234 3706 0
-9 -1235 3707 0
-9 -1236 3708 0
-10 -1233 3706 0
-10 -1234 3707 0
-10 -1235 3708 0
-10 -1236 3705 0
-11 -1233 3707 0
-11 -1234 3708 0
-11 -1235 3705 0
-11 -1236 3706 0
-12 -1233 3708 0
-12 -1234 3705 0
-12 -1235 3706 0
-12 -1236 3707 0
-5 -1853 3709 0
-5 -1854 3710 0
-5 -1855 3711 0
-5 -1856 3712 0
-6 -1853 3710 0
-6 -1854 3711 0
-6 -1855 3712 0
-6 -1856 3709 0
-7 -1853 3711 0
-7 -1854 3712 0
-7 -1855 3709 0
-7 -1856 3710 0
-8 -1853 3712 0
-8 -1854 3709 0
-8 -1855 3710 0
-8 -1856 3711 0
3713 3714 3715 3716 0
-3713 -3714 0
-3713 -3715 0
-3713 -3716 0
-3714 -3715 0
-3714 -3716 0
-3715 -3716 0
-5 -1857 3717 0
-5 -1858 3718 0
-5 -1859 3719 0
-5 -1860 3720 0
-6 -1857 3718 0
-6 -1858 3719 0
-6 -1859 3720 0
-6 -1860 3717 0
-7 -1857 3719 0
-7 -1858 3720 0
-7 -1859 3717 0
-7 -1860 3718 0
-8 -1857 3720 0
-8 -1858 3717 0
-8 -1859 3718 0
-8 -1860 3719 0
-25 -529 3721 0
-25 -530 3722 0
-25 -531 3723 0
-25 -532 3724 0
-26 -529 3722 0
-26 -530 3723 0
-26 -531 3724 0
-26 -532 3721 0
-27 -529 3723 0
-27 -530 3724 0
-27 -531 3721 0
-27 -532 3722 0
-28 -529 3724 0
-28 -530 3721 0
-28 -531 3722 0
-28 -532 3723 0
-5 -1861 3725 0
-5 -1862 3726 0
-5 -1863 3727 0
-5 -1864 3728 0
-6 -1861 3726 0
-6 -1862 3727 0
-6 -1863 3728 0
-6 -1864 3725 0
-7 -1861 3727 0
-7 -1862 3728 0
-7 -1863 3725 0
-7 -1864 3726 0
-8 -1861 3728 0
-8 -1862 3725 0
-8 -1863 3726 0
-8 -1864 3727 0
-9 -1241 3729 0
-9 -1242 3730 0
-9 -1243 3731 0
-9 -1244 3732 0
-10 -1241 3730 0
-10 -1242 3731 0
-10 -1243 3732 0
-10 -1244 3729 0
-11 -1241 3731 0
-11 -1242 3732 0
-11 -1243 3729 0
-11 -1244 3730 0
-12 -1241 3732 0
-12 -1242 3729 0
-12 -1243 3730 0
-12 -1244 3731 0
-5 -1865 3733 0
-5 -1866 3734 0
-5 -1867 3735 0
-5 -1868 3736 0
-6 -1865 3734 0
-6 -1866 3735 0
-6 -1867 3736 0
-6 -1868 3733 0
-7 -1865 3735 0
-7 -1866 3736 0
-7 -1867 3733 0
-7 -1868 3734 0
-8 -1865 3736 0
-8 -1866 3733 0
-8 -1867 3734 0
-8 -1868 3735 0
-17 -745 3737 0
-17 -746 3738 0
-17 -747 3739 0
-17 -748 3740 0
-18 -745 3738 0
-18 -746 3739 0
-18 -747 3740 0
-18 -748 3737 0
-19 -745 3739 0
-19 -746 3740 0
-19 -747 3737 0
-19 -748 3738 0
-20 -745 3740 0
-20 -746 3737 0
-20 -747 3738 0
-20 -748 3739 0
-5 -1869 3741 0
-5 -1870 3742 0
-5 -1871 3743 0
-5 -1872 3744 0
-6 -1869 3742 0
-6 -1870 3743 0
-6 -1871 3744 0
-6 -1872 3741 0
-7 -1869 3743 0
-7 -1870 3744 0
-7 -1871 3741 0
-7 -1872 3742 0
-8 -1869 3744 0
-8 -1870 3741 0
-8 -1871 3742 0
-8 -1872 3743 0
3745 3746 3747 3748 0
-3745 -3746 0
-3745 -3747 0
-3745 -3748 0
-3746 -3747 0
-3746 -3748 0
-3747 -3748 0
-5 -1873 3749 0
-5 -1874 3750 0
-5 -1875 3751 0
-5 -1876 3752 0
-6 -1873 3750 0
-6 -1874 3751 0
-6 -1875 3752 0
-6 -1876 3749 0
-7 -1873 3751 0
-7 -1874 3752 0
-7 -1875 3749 0
-7 -1876 3750 0
-8 -1873 3752 0
-8 -1874 3749 0
-8 -1875 3750 0
-8 -1876 3751 0
-9 -1249 3753 0
-9 -1250 3754 0
-9 -1251 3755 0
-9 -1252 3756 0
-10 -1249 3754 0
-10 -1250 3755 0
-10 -1251 3756 0
-10 -1252 3753 0
-11 -1249 3755 0
-11 -1250 3756 0
-11 -1251 3753 0
-11 -1252 3754 0
-12 -1249 3756 0
-12 -1250 3753 0
-12 -1251 3754 0
-12 -1252 3755 0
-5 -1877 3757 0
-5 -1878 3758 0
-5 -1879 3759 0
-5 -1880 3760 0
-6 -1877 3758 0
-6 -1878 3759 0
-6 -1879 3760 0
-6 -1880 3757 0
-7 -1877 3759 0
-7 -1878 3760 0
-7 -1879 3757 0
-7 -1880 3758 0
-8 -1877 3760 0
-8 -1878 3757 0
-8 -1879 3758 0
-8 -1880 3759 0
3761 3762 3763 3764 0
-3761 -3762 0
-3761 -3763 0
-3761 -3764 0
-3762 -3763 0
-3762 -3764 0
-3763 -3764 0
-5 -1881 3765 0
-5 -1882 3766 0
-5 -1883 3767 0
-5 -1884 3768 0
-6 -1881 3766 0
-6 -1882 3767 0
-6 -1883 3768 0
-6 -1884 3765 0
-7 -1881 3767 0
-7 -1882 3768 0
-7 -1883 3765 0
-7 -1884 3766 0
-8 -1881 3768 0
-8 -1882 3765 0
-8 -1883 3766 0
-8 -1884 3767 0
-89 -161 3769 0
-89 -162 3770 0
-89 -163 3771 0
-89 -164 3772 0
-90 -161 3770 0
-90 -162 3771 0
-90 -163 3772 0
-90 -164 3769 0
-91 -161 3771 0
-91 -162 3772 0
-91 -163 3769 0
-91 -164 3770 0
-92 -161 3772 0
-92 -162 3769 0
-92 -163 3770 0
-92 -164 3771 0
-5 -1885 3773 0
-5 -1886 3774 0
-5 -1887 3775 0
-5 -1888 3776 0
-6 -1885 3774 0
-6 -1886 3775 0
-6 -1887 3776 0
-6 -1888 3773 0
-7 -1885 3775 0
-7 -1886 3776 0
-7 -1887 3773 0
-7 -1888 3774 0
-8 -1885 3776 0
-8 -1886 3773 0
-8 -1887 3774 0
-8 -1888 3775 0
-9 -1257 3777 0
-9 -1258 3778 0
-9 -1259 3779 0
-9 -1260 3780 0
-10 -1257 3778 0
-10 -1258 3779 0
-10 -1259 3780 0
-10 -1260 3777 0
-11 -1257 3779 0
-11 -1258 3780 0
-11 -1259 3777 0
-11 -1260 3778 0
-12 -1257 3780 0
-12 -1258 3777 0
-12 -1259 3778 0
-12 -1260 3779 0
-5 -1889 3781 0
-5 -1890 3782 0
-5 -1891 3783 0
-5 -1892 3784 0
-6 -1889 3782 0
-6 -1890 3783 0
-6 -1891 3784 0
-6 -1892 3781 0
-7 -1889 3783 0
-7 -1890 3784 0
-7 -1891 3781 0
-7 -1892 3782 0
-8 -1889 3784 0
-8 -1890 3781 0
-8 -1891 3782 0
-8 -1892 3783 0
3785 3786 3787 3788 0
-3785 -3786 0
-3785 -3787 0
-3785 -3788 0
-3786 -3787 0
-3786 -3788 0
-3787 -3788 0
-5 -1893 3789 0
-5 -1894 3790 0
-5 -1895 3791 0
-5 -1896 3792 0
-6 -1893 3790 0
-6 -1894 3791 0
-6 -1895 3792 0
-6 -1896 3789 0
-7 -1893 3791 0
-7 -1894 3792 0
-7 -1895 3789 0
-7 -1896 3790 0
-8 -1893 3792 0
-8 -1894 3789 0
-8 -1895 3790 0
-8 -1896 3791 0
-49 -289 3793 0
-49 -290 3794 0
-49 -291 3795 0
-49 -292 3796 0
-50 -289 3794 0
-50 -290 3795 0
-50 -291 3796 0
-50 -292 3793 0
-51 -289 3795 0
-51 -290 3796 0
-51 -291 3793 0
-51 -292 3794 0
-52 -289 3796 0
-52 -290 3793 0
-52 -291 3794 0
-52 -292 3795 0
-5 -1897 3797 0
-5 -1898 3798 0
-5 -1899 3799 0
-5 -1900 3800 0
-6 -1897 3798 0
-6 -1898 3799 0
-6 -1899 3800 0
-6 -1900 3797 0
-7 -1897 3799 0
-7 -1898 3800 0
-7 -1899 3797 0
-7 -1900 3798 0
-8 -1897 3800 0
-8 -1898 3797 0
-8 -1899 3798 0
-8 -1900 3799 0
-9 -1265 3801 0
-9 -1266 3802 0
-9 -1267 3803 0
-9 -1268 3804 0
-10 -1265 3802 0
-10 -1266 3803 0
-10 -1267 3804 0
-10 -1268 3801 0
-11 -1265 3803 0
-11 -1266 3804 0
-11 -1267 3801 0
-11 -1268 3802 0
-12 -1265 3804 0
-12 -1266 3801 0
-12 -1267 3802 0
-12 -1268 3803 0
-5 -1901 3805 0
-5 -1902 3806 0
-5 -1903 3807 0
-5 -1904 3808 0
-6 -1901 3806 0
-6 -1902 3807 0
-6 -1903 3808 0
-6 -1904 3805 0
-7 -1901 3807 0
-7 -1902 3808 0
-7 -1903 3805 0
-7 -1904 3806 0
-8 -1901 3808 0
-8 -1902 3805 0
-8 -1903 3806 0
-8 -1904 3807 0
3809 3810 3811 3812 0
-3809 -3810 0
-3809 -3811 0
-3809 -3812 0
-3810 -3811 0
-3810 -3812 0
-3811 -3812 0
-5 -1905 3813 0
-5 -1906 3814 0
-5 -1907 3815 0
-5 -1908 3816 0
-6 -1905 3814 0
-6 -1906 3815 0
-6 -1907 3816 0
-6 -1908 3813 0
-7 -1905 3815 0
-7 -1906 3816 0
-7 -1907 3813 0
-7 -1908 3814 0
-8 -1905 3816 0
-8 -1906 3813 0
-8 -1907 3814 0
-8 -1908 3815 0
-17 -761 3817 0
-17 -762 3818 0
-17 -763 3819 0
-17 -764 3820 0
-18 -761 3818 0
-18 -762 3819 0
-18 -763 3820 0
-18 -764 3817 0
-19 -761 3819 0
-19 -762 3820 0
-19 -763 3817 0
-19 -764 3818 0
-20 -761 3820 0
-20 -762 3817 0
-20 -763 3818 0
-20 -764 3819 0
-5 -1909 3821 0
-5 -1910 3822 0
-5 -1911 3823 0
-5 -1912 3824 0
-6 -1909 3822 0
-6 -1910 3823 0
-6 -1911 3824 0
-6 -1912 3821 0
-7 -1909 3823 0
-7 -1910 3824 0
-7 -1911 3821 0
-7 -1912 3822 0
-8 -1909 3824 0
-8 -1910 3821 0
-8 -1911 3822 0
-8 -1912 3823 0
-9 -1273 3825 0
-9 -1274 3826 0
-9 -1275 3827 0
-9 -1276 3828 0
-10 -1273 3826 0
-10 -1274 3827 0
-10 -1275 3828 0
-10 -1276 3825 0
-11 -1273 3827 0
-11 -1274 3828 0
-11 -1275 3825 0
-11 -1276 3826 0
-12 -1273 3828 0
-12 -1274 3825 0
-12 -1275 3826 0
-12 -1276 3827 0
-5 -1913 3829 0
-5 -1914 3830 0
-5 -1915 3831 0
-5 -1916 3832 0
-6 -1913 3830 0
-6 -1914 3831 0
-6 -1915 3832 0
-6 -1916 3829 0
-7 -1913 3831 0
-7 -1914 3832 0
-7 -1915 3829 0
-7 -1916 3830 0
-8 -1913 3832 0
-8 -1914 3829 0
-8 -1915 3830 0
-8 -1916 3831 0
-25 -545 3833 0
-25 -546 3834 0
-25 -547 3835 0
-25 -548 3836 0
-26 -545 3834 0
-26 -546 3835 0
-26 -547 3836 0
-26 -548 3833 0
-27 -545 3835 0
-27 -546 3836 0
-27 -547 3833 0
-27 -548 3834 0
-28 -545 3836 0
-28 -546 3833 0
-28 -547 3834 0
-28 -548 3835 0
-5 -1917 3837 0
-5 -1918 3838 0
-5 -1919 3839 0
-5 -1920 3840 0
-6 -1917 3838 0
-6 -1918 3839 0
-6 -1919 3840 0
-6 -1920 3837 0
-7 -1917 3839 0
-7 -1918 3840 0
-7 -1919 3837 0
-7 -1920 3838 0
-8 -1917 3840 0
-8 -1918 3837 0
-8 -1919 3838 0
-8 -1920 3839 0
-121 -121 3841 0
-121 -122 3842 0
-121 -123 3843 0
-121 -124 3844 0
-122 -121 3842 0
-122 -122 3843 0
-122 -123 3844 0
-122 -124 3841 0
-123 -121 3843 0
-123 -122 3844 0
-123 -123 3841 0
-123 -124 3842 0
-124 -121 3844 0
-124 -122 3841 0
-124 -123 3842 0
-124 -124 3843 0
-5 -1921 3845 0
-5 -1922 3846 0
-5 -1923 3847 0
-5 -1924 3848 0
-6 -1921 3846 0
-6 -1922 3847 0
-6 -1923 3848 0
-6 -1924 3845 0
-7 -1921 3847 0
-7 -1922 3848 0
-7 -1923 3845 0
-7 -1924 3846 0
-8 -1921 3848 0
-8 -1922 3845 0
-8 -1923 3846 0
-8 -1924 3847 0
-9 -1281 3849 0
-9 -1282 3850 0
-9 -1283 3851 0
-9 -1284 3852 0
-10 -1281 3850 0
-10 -1282 3851 0
-10 -1283 3852 0
-10 -1284 3849 0
-11 -1281 3851 0
-11 -1282 3852 0
-11 -1283 3849 0
-11 -1284 3850 0
-12 -1281 3852 0
-12 -1282 3849 0
-12 -1283 3850 0
-12 -1284 3851 0
-5 -1925 3853 0
-5 -1926 3854 0
-5 -1927 3855 0
-5 -1928 3856 0
-6 -1925 3854 0
-6 -1926 3855 0
-6 -1927 3856 0
-6 -1928 3853 0
-7 -1925 3855 0
-7 -1926 3856 0
-7 -1927 3853 0
-7 -1928 3854 0
-8 -1925 3856 0
-8 -1926 3853 0
-8 -1927 3854 0
-8 -1928 3855 0
-17 -769 3857 0
-17 -770 3858 0
-17 -771 3859 0
-17 -772 3860 0
-18 -769 3858 0
-18 -770 3859 0
-18 -771 3860 0
-18 -772 3857 0
-19 -769 3859 0
-19 -770 3860 0
-19 -771 3857 0
-19 -772 3858 0
-20 -769 3860 0
-20 -770 3857 0
-20 -771 3858 0
-20 -772 3859 0
-5 -1929 3861 0
-5 -1930 3862 0
-5 -1931 3863 0
-5 -1932 3864 0
-6 -1929 3862 0
-6 -1930 3863 0
-6 -1931 3864 0
-6 -1932 3861 0
-7 -1929 3863 0
-7 -1930 3864 0
-7 -1931 3861 0
-7 -1932 3862 0
-8 -1929 3864 0
-8 -1930 3861 0
-8 -1931 3862 0
-8 -1932 3863 0
3865 3866 3867 3868 0
-3865 -3866 0
-3865 -3867 0
-3865 -3868 0
-3866 -3867 0
-3866 -3868 0
-3867 -3868 0
-5 -1933 3869 0
-5 -1934 3870 0
-5 -1935 3871 0
-5 -1936 3872 0
-6 -1933 3870 0
-6 -1934 3871 0
-6 -1935 3872 0
-6 -1936 3869 0
-7 -1933 3871 0
-7 -1934 3872 0
-7 -1935 3869 0
-7 -1936 3870 0
-8 -1933 3872 0
-8 -1934 3869 0
-8 -1935 3870 0
-8 -1936 3871 0
-9 -1289 3873 0
-9 -1290 3874 0
-9 -1291 3875 0
-9 -1292 3876 0
-10 -1289 3874 0
-10 -1290 3875 0
-10 -1291 3876 0
-10 -1292 3873 0
-11 -1289 3875 0
-11 -1290 3876 0
-11 -1291 3873 0
-11 -1292 3874 0
-12 -1289 3876 0
-12 -1290 3873 0
-12 -1291 3874 0
-12 -1292 3875 0
-5 -1937 3877 0
-5 -1938 3878 0
-5 -1939 3879 0
-5 -1940 3880 0
-6 -1937 3878 0
-6 -1938 3879 0
-6 -1939 3880 0
-6 -1940 3877 0
-7 -1937 3879 0
-7 -1938 3880 0
-7 -1939 3877 0
-7 -1940 3878 0
-8 -1937 3880 0
-8 -1938 3877 0
-8 -1939 3878 0
-8 -1940 3879 0
3881 3882 3883 3884 0
-3881 -3882 0
-3881 -3883 0
-3881 -3884 0
-3882 -3883 0
-3882 -3884 0
-3883 -3884 0
-5 -1941 3885 0
-5 -1942 3886 0
-5 -1943 3887 0
-5 -1944 3888 0
-6 -1941 3886 0
-6 -1942 3887 0
-6 -1943 3888 0
-6 -1944 3885 0
-7 -1941 3887 0
-7 -1942 3888 0
-7 -1943 3885 0
-7 -1944 3886 0
-8 -1941 3888 0
-8 -1942 3885 0
-8 -1943 3886 0
-8 -1944 3887 0
-25 -553 3889 0
-25 -554 3890 0
-25 -555 3891 0
-25 -556 3892 0
-26 -553 3890 0
-26 -554 3891 0
-26 -555 3892 0
-26 -556 3889 0
-27 -553 3891 0
-27 -554 3892 0
-27 -555 3889 0
-27 -556 3890 0
-28 -553 3892 0
-28 -554 3889 0
-28 -555 3890 0
-28 -556 3891 0
-5 -1945 3893 0
-5 -1946 3894 0
-5 -1947 3895 0
-5 -1948 3896 0
-6 -1945 3894 0
-6 -1946 3895 0
-6 -1947 3896 0
-6 -1948 3893 0
-7 -1945 3895 0
-7 -1946 3896 0
-7 -1947 3893 0
-7 -1948 3894 0
-8 -1945 3896 0
-8 -1946 3893 0
-8 -1947 3894 0
-8 -1948 3895 0
-9 -1297 3897 0
-9 -1298 3898 0
-9 -1299 3899 0
-9 -1300 3900 0
-10 -1297 3898 0
-10 -1298 3899 0
-10 -1299 3900 0
-10 -1300 3897 0
-11 -1297 3899 0
-11 -1298 3900 0
-11 -1299 3897 0
-11 -1300 3898 0
-12 -1297 3900 0
-12 -1298 3897 0
-12 -1299 3898 0
-12 -1300 3899 0
-5 -1949 3901 0
-5 -1950 3902 0
-5 -1951 3903 0
-5 -1952 3904 0
-6 -1949 3902 0
-6 -1950 3903 0
-6 -1951 3904 0
-6 -1952 3901 0
-7 -1949 3903 0
-7 -1950 3904 0
-7 -1951 3901 0
-7 -1952 3902 0
-8 -1949 3904 0
-8 -1950 3901 0
-8 -1951 3902 0
-8 -1952 3903 0
3905 3906 3907 3908 0
-3905 -3906 0
-3905 -3907 0
-3905 -3908 0
-3906 -3907 0
-3906 -3908 0
-3907 -3908 0
-5 -1953 3909 0
-5 -1954 3910 0
-5 -1955 3911 0
-5 -1956 3912 0
-6 -1953 3910 0
-6 -1954 3911 0
-6 -1955 3912 0
-6 -1956 3909 0
-7 -1953 3911 0
-7 -1954 3912 0
-7 -1955 3909 0
-7 -1956 3910 0
-8 -1953 3912 0
-8 -1954 3909 0
-8 -1955 3910 0
-8 -1956 3911 0
-41 -353 3913 0
-41 -354 3914 0
-41 -355 3915 0
-41 -356 3916 0
-42 -353 3914 0
-42 -354 3915 0
-42 -355 3916 0
-42 -356 3913 0
-43 -353 3915 0
-43 -354 3916 0
-43 -355 3913 0
-43 -356 3914 0
-44 -353 3916 0
-44 -354 3913 0
-44 -355 3914 0
-44 -356 3915 0
-5 -1957 3917 0
-5 -1958 3918 0
-5 -1959 3919 0
-5 -1960 3920 0
-6 -1957 3918 0
-6 -1958 3919 0
-6 -1959 3920 0
-6 -1960 3917 0
-7 -1957 3919 0
-7 -1958 3920 0
-7 -1959 3917 0
-7 -1960 3918 0
-8 -1957 3920 0
-8 -1958 3917 0
-8 -1959 3918 0
-8 -1960 3919 0
-9 -1305 3921 0
-9 -1306 3922 0
-9 -1307 3923 0
-9 -1308 3924 0
-10 -1305 3922 0
-10 -1306 3923 0
-10 -1307 3924 0
-10 -1308 3921 0
-11 -1305 3923 0
-11 -1306 3924 0
-11 -1307 3921 0
-11 -1308 3922 0
-12 -1305 3924 0
-12 -1306 3921 0
-12 -1307 3922 0
-12 -1308 3923 0
-5 -1961 3925 0
-5 -1962 3926 0
-5 -1963 3927 0
-5 -1964 3928 0
-6 -1961 3926 0
-6 -1962 3927 0
-6 -1963 3928 0
-6 -1964 3925 0
-7 -1961 3927 0
-7 -1962 3928 0
-7 -1963 3925 0
-7 -1964 3926 0
-8 -1961 3928 0
-8 -1962 3925 0
-8 -1963 3926 0
-8 -1964 3927 0
3929 3930 3931 3932 0
-3929 -3930 0
-3929 -3931 0
-3929 -3932 0
-3930 -3931 0
-3930 -3932 0
-3931 -3932 0
-5 -1965 3933 0
-5 -1966 3934 0
-5 -1967 3935 0
-5 -1968 3936 0
-6 -1965 3934 0
-6 -1966 3935 0
-6 -1967 3936 0
-6 -1968 3933 0
-7 -1965 3935 0
-7 -1966 3936 0
-7 -1967 3933 0
-7 -1968 3934 0
-8 -1965 3936 0
-8 -1966 3933 0
-8 -1967 3934 0
-8 -1968 3935 0
-17 -785 3937 0
-17 -786 3938 0
-17 -787 3939 0
-17 -788 3940 0
-18 -785 3938 0
-18 -786 3939 0
-18 -787 3940 0
-18 -788 3937 0
-19 -785 3939 0
-19 -786 3940 0
-19 -787 3937 0
-19 -788 3938 0
-20 -785 3940 0
-20 -786 3937 0
-20 -787 3938 0
-20 -788 3939 0
-5 -1969 3941 0
-5 -1970 3942 0
-5 -1971 3943 0
-5 -1972 3944 0
-6 -1969 3942 0
-6 -1970 3943 0
-6 -1971 3944 0
-6 -1972 3941 0
-7 -1969 3943 0
-7 -1970 3944 0
-7 -1971 3941 0
-7 -1972 3942 0
-8 -1969 3944 0
-8 -1970 3941 0
-8 -1971 3942 0
-8 -1972 3943 0
-9 -1313 3945 0
-9 -1314 3946 0
-9 -1315 3947 0
-9 -1316 3948 0
-10 -1313 3946 0
-10 -1314 3947 0
-10 -1315 3948 0
-10 -1316 3945 0
-11 -1313 3947 0
-11 -1314 3948 0
-11 -1315 3945 0
-11 -1316 3946 0
-12 -1313 3948 0
-12 -1314 3945 0
-12 -1315 3946 0
-12 -1316 3947 0
-5 -1973 3949 0
-5 -1974 3950 0
-5 -1975 3951 0
-5 -1976 3952 0
-6 -1973 3950 0
-6 -1974 3951 0
-6 -1975 3952 0
-6 -1976 3949 0
-7 -1973 3951 0
-7 -1974 3952 0
-7 -1975 3949 0
-7 -1976 3950 0
-8 -1973 3952 0
-8 -1974 3949 0
-8 -1975 3950 0
-8 -1976 3951 0
-89 -169 3953 0
-89 -170 3954 0
-89 -171 3955 0
-89 -172 3956 0
-90 -169 3954 0
-90 -170 3955 0
-90 -171 3956 0
-90 -172 3953 0
-91 -169 3955 0
-91 -170 3956 0
-91 -171 3953 0
-91 -172 3954 0
-92 -169 3956 0
-92 -170 3953 0
-92 -171 3954 0
-92 -172 3955 0
-5 -1977 3957 0
-5 -1978 3958 0
-5 -1979 3959 0
-5 -1980 3960 0
-6 -1977 3958 0
-6 -1978 3959 0
-6 -1979 3960 0
-6 -1980 3957 0
-7 -1977 3959 0
-7 -1978 3960 0
-7 -1979 3957 0
-7 -1980 3958 0
-8 -1977 3960 0
-8 -1978 3957 0
-8 -1979 3958 0
-8 -1980 3959 0
3961 3962 3963 3964 0
-3961 -3962 0
-3961 -3963 0
-3961 -3964 0
-3962 -3963 0
-3962 -3964 0
-3963 -3964 0
-5 -1981 3965 0
-5 -1982 3966 0
-5 -1983 3967 0
-5 -1984 3968 0
-6 -1981 3966 0
-6 -1982 3967 0
-6 -1983 3968 0
-6 -1984 3965 0
-7 -1981 3967 0
-7 -1982 3968 0
-7 -1983 3965 0
-7 -1984 3966 0
-8 -1981 3968 0
-8 -1982 3965 0
-8 -1983 3966 0
-8 -1984 3967 0
-9 -1321 3969 0
-9 -1322 3970 0
-9 -1323 3971 0
-9 -1324 3972 0
-10 -1321 3970 0
-10 -1322 3971 0
-10 -1323 3972 0
-10 -1324 3969 0
-11 -1321 3971 0
-11 -1322 3972 0
-11 -1323 3969 0
-11 -1324 3970 0
-12 -1321 3972 0
-12 -1322 3969 0
-12 -1323 3970 0
-12 -1324 3971 0
-5 -1985 3973 0
-5 -1986 3974 0
-5 -1987 3975 0
-5 -1988 3976 0
-6 -1985 3974 0
-6 -1986 3975 0
-6 -1987 3976 0
-6 -1988 3973 0
-7 -1985 3975 0
-7 -1986 3976 0
-7 -1987 3973 0
-7 -1988 3974 0
-8 -1985 3976 0
-8 -1986 3973 0
-8 -1987 3974 0
-8 -1988 3975 0
-17 -793 3977 0
-17 -794 3978 0
-17 -795 3979 0
-17 -796 3980 0
-18 -793 3978 0
-18 -794 3979 0
-18 -795 3980 0
-18 -796 3977 0
-19 -793 3979 0
-19 -794 3980 0
-19 -795 3977 0
-19 -796 3978 0
-20 -793 3980 0
-20 -794 3977 0
-20 -795 3978 0
-20 -796 3979 0
-5 -1989 3981 0
-5 -1990 3982 0
-5 -1991 3983 0
-5 -1992 3984 0
-6 -1989 3982 0
-6 -1990 3983 0
-6 -1991 3984 0
-6 -1992 3981 0
-7 -1989 3983 0
-7 -1990 3984 0
-7 -1991 3981 0
-7 -1992 3982 0
-8 -1989 3984 0
-8 -1990 3981 0
-8 -1991 3982 0
-8 -1992 3983 0
3985 3986 3987 3988 0
-3985 -3986 0
-3985 -3987 0
-3985 -3988 0
-3986 -3987 0
-3986 -3988 0
-3987 -3988 0
-5 -1993 3989 0
-5 -1994 3990 0
-5 -1995 3991 0
-5 -1996 3992 0
-6 -1993 3990 0
-6 -1994 3991 0
-6 -1995 3992 0
-6 -1996 3989 0
-7 -1993 3991 0
-7 -1994 3992 0
-7 -1995 3989 0
-7 -1996 3990 0
-8 -1993 3992 0
-8 -1994 3989 0
-8 -1995 3990 0
-8 -1996 3991 0
-9 -1329 3993 0
-9 -1330 3994 0
-9 -1331 3995 0
-9 -1332 3996 0
-10 -1329 3994 0
-10 -1330 3995 0
-10 -1331 3996 0
-10 -1332 3993 0
-11 -1329 3995 0
-11 -1330 3996 0
-11 -1331 3993 0
-11 -1332 3994 0
-12 -1329 3996 0
-12 -1330 3993 0
-12 -1331 3994 0
-12 -1332 3995 0
-5 -1997 3997 0
-5 -1998 3998 0
-5 -1999 3999 0
-5 -2000 4000 0
-6 -1997 3998 0
-6 -1998 3999 0
-6 -1999 4000 0
-6 -2000 3997 0
-7 -1997 3999 0
-7 -1998 4000 0
-7 -1999 3997 0
-7 -2000 3998 0
-8 -1997 4000 0
-8 -1998 3997 0
-8 -1999 3998 0
-8 -2000 3999 0
-25 -569 4001 0
-25 -570 4002 0
-25 -571 4003 0
-25 -572 4004 0
-26 -569 4002 0
-26 -570 4003 0
-26 -571 4004 0
-26 -572 4001 0
-27 -569 4003 0
-27 -570 4004 0
-27 -571 4001 0
-27 -572 4002 0
-28 -569 4004 0
-28 -570 4001 0
-28 -571 4002 0
-28 -572 4003 0
-5 -2001 4005 0
-5 -2002 4006 0
-5 -2003 4007 0
-5 -2004 4008 0
-6 -2001 4006 0
-6 -2002 4007 0
-6 -2003 4008 0
-6 -2004 4005 0
-7 -2001 4007 0
-7 -2002 4008 0
-7 -2003 4005 0
-7 -2004 4006 0
-8 -2001 4008 0
-8 -2002 4005 0
-8 -2003 4006 0
-8 -2004 4007 0
-65 -233 4009 0
-65 -234 4010 0
-65 -235 4011 0
-65 -236 4012 0
-66 -233 4010 0
-66 -234 4011 0
-66 -235 4012 0
-66 -236 4009 0
-67 -233 4011 0
-67 -234 4012 0
-67 -235 4009 0
-67 -236 4010 0
-68 -233 4012 0
-68 -234 4009 0
-68 -235 4010 0
-68 -236 4011 0
-5 -2005 4013 0
-5 -2006 4014 0
-5 -2007 4015 0
-5 -2008 4016 0
-6 -2005 4014 0
-6 -2006 4015 0
-6 -2007 4016 0
-6 -2008 4013 0
-7 -2005 4015 0
-7 -2006 4016 0
-7 -2007 4013 0
-7 -2008 4014 0
-8 -2005 4016 0
-8 -2006 4013 0
-8 -2007 4014 0
-8 -2008 4015 0
-9 -1337 4017 0
-9 -1338 4018 0
-9 -1339 4019 0
-9 -1340 4020 0
-10 -1337 4018 0
-10 -1338 4019 0
-10 -1339 4020 0
-10 -1340 4017 0
-11 -1337 4019 0
-11 -1338 4020 0
-11 -1339 4017 0
-11 -1340 4018 0
-12 -1337 4020 0
-12 -1338 4017 0
-12 -1339 4018 0
-12 -1340 4019 0
-5 -2009 4021 0
-5 -2010 4022 0
-5 -2011 4023 0
-5 -2012 4024 0
-6 -2009 4022 0
-6 -2010 4023 0
-6 -2011 4024 0
-6 -2012 4021 0
-7 -2009 4023 0
-7 -2010 4024 0
-7 -2011 4021 0
-7 -2012 4022 0
-8 -2009 4024 0
-8 -2010 4021 0
-8 -2011 4022 0
-8 -2012 4023 0
-73 -209 4025 0
-73 -210 4026 0
-73 -211 4027 0
-73 -212 4028 0
-74 -209 4026 0
-74 -210 4027 0
-74 -211 4028 0
-74 -212 4025 0
-75 -209 4027 0
-75 -210 4028 0
-75 -211 4025 0
-75 -212 4026 0
-76 -209 4028 0
-76 -210 4025 0
-76 -211 4026 0
-76 -212 4027 0
-5 -2013 4029 0
-5 -2014 4030 0
-5 -2015 4031 0
-5 -2016 4032 0
-6 -2013 4030 0
-6 -2014 4031 0
-6 -2015 4032 0
-6 -2016 4029 0
-7 -2013 4031 0
-7 -2014 4032 0
-7 -2015 4029 0
-7 -2016 4030 0
-8 -2013 4032 0
-8 -2014 4029 0
-8 -2015 4030 0
-8 -2016 4031 0
4033 4034 4035 4036 0
-4033 -4034 0
-4033 -4035 0
-4033 -4036 0
-4034 -4035 0
-4034 -4036 0
-4035 -4036 0
-5 -2017 4037 0
-5 -2018 4038 0
-5 -2019 4039 0
-5 -2020 4040 0
-6 -2017 4038 0
-6 -2018 4039 0
-6 -2019 4040 0
-6 -2020 4037 0
-7 -2017 4039 0
-7 -2018 4040 0
-7 -2019 4037 0
-7 -2020 4038 0
-8 -2017 4040 0
-8 -2018 4037 0
-8 -2019 4038 0
-8 -2020 4039 0
-9 -1345 4041 0
-9 -1346 4042 0
-9 -1347 4043 0
-9 -1348 4044 0
-10 -1345 4042 0
-10 -1346 4043 0
-10 -1347 4044 0
-10 -1348 4041 0
-11 -1345 4043 0
-11 -1346 4044 0
-11 -1347 4041 0
-11 -1348 4042 0
-12 -1345 4044 0
-12 -1346 4041 0
-12 -1347 4042 0
-12 -1348 4043 0
-5 -2021 4045 0
-5 -2022 4046 0
-5 -2023 4047 0
-5 -2024 4048 0
-6 -2021 4046 0
-6 -2022 4047 0
-6 -2023 4048 0
-6 -2024 4045 0
-7 -2021 4047 0
-7 -2022 4048 0
-7 -2023 4045 0
-7 -2024 4046 0
-8 -2021 4048 0
-8 -2022 4045 0
-8 -2023 4046 0
-8 -2024 4047 0
4049 4050 4051 4052 0
-4049 -4050 0
-4049 -4051 0
-4049 -4052 0
-4050 -4051 0
-4050 -4052 0
-4051 -4052 0
-5 -2025 4053 0
-5 -2026 4054 0
-5 -2027 4055 0
-5 -2028 4056 0
-6 -2025 4054 0
-6 -2026 4055 0
-6 -2027 4056 0
-6 -2028 4053 0
-7 -2025 4055 0
-7 -2026 4056 0
-7 -2027 4053 0
-7 -2028 4054 0
-8 -2025 4056 0
-8 -2026 4053 0
-8 -2027 4054 0
-8 -2028 4055 0
-17 -809 4057 0
-17 -810 4058 0
-17 -811 4059 0
-17 -812 4060 0
-18 -809 4058 0
-18 -810 4059 0
-18 -811 4060 0
-18 -812 4057 0
-19 -809 4059 0
-19 -810 4060 0
-19 -811 4057 0
-19 -812 4058 0
-20 -809 4060 0
-20 -810 4057 0
-20 -811 4058 0
-20 -812 4059 0
-5 -2029 4061 0
-5 -2030 4062 0
-5 -2031 4063 0
-5 -2032 4064 0
-6 -2029 4062 0
-6 -2030 4063 0
-6 -2031 4064 0
-6 -2032 4061 0
-7 -2029 4063 0
-7 -2030 4064 0
-7 -2031 4061 0
-7 -2032 4062 0
-8 -2029 4064 0
-8 -2030 4061 0
-8 -2031 4062 0
-8 -2032 4063 0
-9 -1353 4065 0
-9 -1354 4066 0
-9 -1355 4067 0
-9 -1356 4068 0
-10 -1353 4066 0
-10 -1354 4067 0
-10 -1355 4068 0
-10 -1356 4065 0
-11 -1353 4067 0
-11 -1354 4068 0
-11 -1355 4065 0
-11 -1356 4066 0
-12 -1353 4068 0
-12 -1354 4065 0
-12 -1355 4066 0
-12 -1356 4067 0
-5 -2033 4069 0
-5 -2034 4070 0
-5 -2035 4071 0
-5 -2036 4072 0
-6 -2033 4070 0
-6 -2034 4071 0
-6 -2035 4072 0
-6 -2036 4069 0
-7 -2033 4071 0
-7 -2034 4072 0
-7 -2035 4069 0
-7 -2036 4070 0
-8 -2033 4072 0
-8 -2034 4069 0
-8 -2035 4070 0
-8 -2036 4071 0
4073 4074 4075 4076 0
-4073 -4074 0
-4073 -4075 0
-4073 -4076 0
-4074 -4075 0
-4074 -4076 0
-4075 -4076 0
-5 -2037 4077 0
-5 -2038 4078 0
-5 -2039 4079 0
-5 -2040 4080 0
-6 -2037 4078 0
-6 -2038 4079 0
-6 -2039 4080 0
-6 -2040 4077 0
-7 -2037 4079 0
-7 -2038 4080 0
-7 -2039 4077 0
-7 -2040 4078 0
-8 -2037 4080 0
-8 -2038 4077 0
-8 -2039 4078 0
-8 -2040 4079 0
4081 4082 4083 4084 0
-4081 -4082 0
-4081 -4083 0
-4081 -4084 0
-4082 -4083 0
-4082 -4084 0
-4083 -4084 0
-5 -2041 4085 0
-5 -2042 4086 0
-5 -2043 4087 0
-5 -2044 4088 0
-6 -2041 4086 0
-6 -2042 4087 0
-6 -2043 4088 0
-6 -2044 4085 0
-7 -2041 4087 0
-7 -2042 4088 0
-7 -2043 4085 0
-7 -2044 4086 0
-8 -2041 4088 0
-8 -2042 4085 0
-8 -2043 4086 0
-8 -2044 4087 0
-9 -1361 4089 0
-9 -1362 4090 0
-9 -1363 4091 0
-9 -1364 4092 0
-10 -1361 4090 0
-10 -1362 4091 0
-10 -1363 4092 0
-10 -1364 4089 0
-11 -1361 4091 0
-11 -1362 4092 0
-11 -1363 4089 0
-11 -1364 4090 0
-12 -1361 4092 0
-12 -1362 4089 0
-12 -1363 4090 0
-12 -1364 4091 0
-5 -2045 4093 0
-5 -2046 4094 0
-5 -2047 4095 0
-5 -2048 4096 0
-6 -2045 4094 0
-6 -2046 4095 0
-6 -2047 4096 0
-6 -2048 4093 0
-7 -2045 4095 0
-7 -2046 4096 0
-7 -2047 4093 0
-7 -2048 4094 0
-8 -2045 4096 0
-8 -2046 4093 0
-8 -2047 4094 0
-8 -2048 4095 0
-17 -817 4097 0
-17 -818 4098 0
-17 -819 4099 0
-17 -820 4100 0
-18 -817 4098 0
-18 -818 4099 0
-18 -819 4100 0
-18 -820 4097 0
-19 -817 4099 0
-19 -818 4100 0
-19 -819 4097 0
-19 -820 4098 0
-20 -817 4100 0
-20 -818 4097 0
-20 -819 4098 0
-20 -820 4099 0
-5 -2049 4101 0
-5 -2050 4102 0
-5 -2051 4103 0
-5 -2052 4104 0
-6 -2049 4102 0
-6 -2050 4103 0
-6 -2051 4104 0
-6 -2052 4101 0
-7 -2049 4103 0
-7 -2050 4104 0
-7 -2051 4101 0
-7 -2052 4102 0
-8 -2049 4104 0
-8 -2050 4101 0
-8 -2051 4102 0
-8 -2052 4103 0
-49 -313 4105 0
-49 -314 4106 0
-49 -315 4107 0
-49 -316 4108 0
-50 -313 4106 0
-50 -314 4107 0
-50 -315 4108 0
-50 -316 4105 0
-51 -313 4107 0
-51 -314 4108 0
-51 -315 4105 0
-51 -316 4106 0
-52 -313 4108 0
-52 -314 4105 0
-52 -315 4106 0
-52 -316 4107 0
-5 -2053 4109 0
-5 -2054 4110 0
-5 -2055 4111 0
-5 -2056 4112 0
-6 -2053 4110 0
-6 -2054 4111 0
-6 -2055 4112 0
-6 -2056 4109 0
-7 -2053 4111 0
-7 -2054 4112 0
-7 -2055 4109 0
-7 -2056 4110 0
-8 -2053 4112 0
-8 -2054 4109 0
-8 -2055 4110 0
-8 -2056 4111 0
-9 -1369 4113 0
-9 -1370 4114 0
-9 -1371 4115 0
-9 -1372 4116 0
-10 -1369 4114 0
-10 -1370 4115 0
-10 -1371 4116 0
-10 -1372 4113 0
-11 -1369 4115 0
-11 -1370 4116 0
-11 -1371 4113 0
-11 -1372 4114 0
-12 -1369 4116 0
-12 -1370 4113 0
-12 -1371 4114 0
-12 -1372 4115 0
-5 -2057 4117 0
-5 -2058 4118 0
-5 -2059 4119 0
-5 -2060 4120 0
-6 -2057 4118 0
-6 -2058 4119 0
-6 -2059 4120 0
-6 -2060 4117 0
-7 -2057 4119 0
-7 -2058 4120 0
-7 -2059 4117 0
-7 -2060 4118 0
-8 -2057 4120 0
-8 -2058 4117 0
-8 -2059 4118 0
-8 -2060 4119 0
4121 4122 4123 4124 0
-4121 -4122 0
-4121 -4123 0
-4121 -4124 0
-4122 -4123 0
-4122 -4124 0
-4123 -4124 0
-5 -2061 4125 0
-5 -2062 4126 0
-5 -2063 4127 0
-5 -2064 4128 0
-6 -2061 4126 0
-6 -2062 4127 0
-6 -2063 4128 0
-6 -2064 4125 0
-7 -2061 4127 0
-7 -2062 4128 0
-7 -2063 4125 0
-7 -2064 4126 0
-8 -2061 4128 0
-8 -2062 4125 0
-8 -2063 4126 0
-8 -2064 4127 0
4129 4130 4131 4132 0
-4129 -4130 0
-4129 -4131 0
-4129 -4132 0
-4130 -4131 0
-4130 -4132 0
-4131 -4132 0
-5 -2065 4133 0
-5 -2066 4134 0
-5 -2067 4135 0
-5 -2068 4136 0
-6 -2065 4134 0
-6 -2066 4135 0
-6 -2067 4136 0
-6 -2068 4133 0
-7 -2065 4135 0
-7 -2066 4136 0
-7 -2067 4133 0
-7 -2068 4134 0
-8 -2065 4136 0
-8 -2066 4133 0
-8 -2067 4134 0
-8 -2068 4135 0
-9 -1377 4137 0
-9 -1378 4138 0
-9 -1379 4139 0
-9 -1380 4140 0
-10 -1377 4138 0
-10 -1378 4139 0
-10 -1379 4140 0
-10 -1380 4137 0
-11 -1377 4139 0
-11 -1378 4140 0
-11 -1379 4137 0
-11 -1380 4138 0
-12 -1377 4140 0
-12 -1378 4137 0
-12 -1379 4138 0
-12 -1380 4139 0
-5 -2069 4141 0
-5 -2070 4142 0
-5 -2071 4143 0
-5 -2072 4144 0
-6 -2069 4142 0
-6 -2070 4143 0
-6 -2071 4144 0
-6 -2072 4141 0
-7 -2069 4143 0
-7 -2070 4144 0
-7 -2071 4141 0
-7 -2072 4142 0
-8 -2069 4144 0
-8 -2070 4141 0
-8 -2071 4142 0
-8 -2072 4143 0
-65 -241 4145 0
-65 -242 4146 0
-65 -243 4147 0
-65 -244 4148 0
-66 -241 4146 0
-66 -242 4147 0
-66 -243 4148 0
-66 -244 4145 0
-67 -241 4147 0
-67 -242 4148 0
-67 -243 4145 0
-67 -244 4146 0
-68 -241 4148 0
-68 -242 4145 0
-68 -243 4146 0
-68 -244 4147 0
-5 -2073 4149 0
-5 -2074 4150 0
-5 -2075 4151 0
-5 -2076 4152 0
-6 -2073 4150 0
-6 -2074 4151 0
-6 -2075 4152 0
-6 -2076 4149 0
-7 -2073 4151 0
-7 -2074 4152 0
-7 -2075 4149 0
-7 -2076 4150 0
-8 -2073 4152 0
-8 -2074 4149 0
-8 -2075 4150 0
-8 -2076 4151 0
4153 4154 4155 4156 0
-4153 -4154 0
-4153 -4155 0
-4153 -4156 0
-4154 -4155 0
-4154 -4156 0
-4155 -4156 0
-5 -2077 4157 0
-5 -2078 4158 0
-5 -2079 4159 0
-5 -2080 4160 0
-6 -2077 4158 0
-6 -2078 4159 0
-6 -2079 4160 0
-6 -2080 4157 0
-7 -2077 4159 0
-7 -2078 4160 0
-7 -2079 4157 0
-7 -2080 4158 0
-8 -2077 4160 0
-8 -2078 4157 0
-8 -2079 4158 0
-8 -2080 4159 0
-9 -1385 4161 0
-9 -1386 4162 0
-9 -1387 4163 0
-9 -1388 4164 0
-10 -1385 4162 0
-10 -1386 4163 0
-10 -1387 4164 0
-10 -1388 4161 0
-11 -1385 4163 0
-11 -1386 4164 0
-11 -1387 4161 0
-11 -1388 4162 0
-12 -1385 4164 0
-12 -1386 4161 0
-12 -1387 4162 0
-12 -1388 4163 0
-5 -2081 4165 0
-5 -2082 4166 0
-5 -2083 4167 0
-5 -2084 4168 0
-6 -2081 4166 0
-6 -2082 4167 0
-6 -2083 4168 0
-6 -2084 4165 0
-7 -2081 4167 0
-7 -2082 4168 0
-7 -2083 4165 0
-7 -2084 4166 0
-8 -2081 4168 0
-8 -2082 4165 0
-8 -2083 4166 0
-8 -2084 4167 0
-25 -593 4169 0
-25 -594 4170 0
-25 -595 4171 0
-25 -596 4172 0
-26 -593 4170 0
-26 -594 4171 0
-26 -595 4172 0
-26 -596 4169 0
-27 -593 4171 0
-27 -594 4172 0
-27 -595 4169 0
-27 -596 4170 0
-28 -593 4172 0
-28 -594 4169 0
-28 -595 4170 0
-28 -596 4171 0
-5 -2085 4173 0
-5 -2086 4174 0
-5 -2087 4175 0
-5 -2088 4176 0
-6 -2085 4174 0
-6 -2086 4175 0
-6 -2087 4176 0
-6 -2088 4173 0
-7 -2085 4175 0
-7 -2086 4176 0
-7 -2087 4173 0
-7 -2088 4174 0
-8 -2085 4176 0
-8 -2086 4173 0
-8 -2087 4174 0
-8 -2088 4175 0
-17 -833 4177 0
-17 -834 4178 0
-17 -835 4179 0
-17 -836 4180 0
-18 -833 4178 0
-18 -834 4179 0
-18 -835 4180 0
-18 -836 4177 0
-19 -833 4179 0
-19 -834 4180 0
-19 -835 4177 0
-19 -836 4178 0
-20 -833 4180 0
-20 -834 4177 0
-20 -835 4178 0
-20 -836 4179 0
-5 -2089 4181 0
-5 -2090 4182 0
-5 -2091 4183 0
-5 -2092 4184 0
-6 -2089 4182 0
-6 -2090 4183 0
-6 -2091 4184 0
-6 -2092 4181 0
-7 -2089 4183 0
-7 -2090 4184 0
-7 -2091 4181 0
-7 -2092 4182 0
-8 -2089 4184 0
-8 -2090 4181 0
-8 -2091 4182 0
-8 -2092 4183 0
-9 -1393 4185 0
-9 -1394 4186 0
-9 -1395 4187 0
-9 -1396 4188 0
-10 -1393 4186 0
-10 -1394 4187 0
-10 -1395 4188 0
-10 -1396 4185 0
-11 -1393 4187 0
-11 -1394 4188 0
-11 -1395 4185 0
-11 -1396 4186 0
-12 -1393 4188 0
-12 -1394 4185 0
-12 -1395 4186 0
-12 -1396 4187 0
-5 -2093 4189 0
-5 -2094 4190 0
-5 -2095 4191 0
-5 -2096 4192 0
-6 -2093 4190 0
-6 -2094 4191 0
-6 -2095 4192 0
-6 -2096 4189 0
-7 -2093 4191 0
-7 -2094 4192 0
-7 -2095 4189 0
-7 -2096 4190 0
-8 -2093 4192 0
-8 -2094 4189 0
-8 -2095 4190 0
-8 -2096 4191 0
4193 4194 4195 4196 0
-4193 -4194 0
-4193 -4195 0
-4193 -4196 0
-4194 -4195 0
-4194 -4196 0
-4195 -4196 0
-5 -2097 4197 0
-5 -2098 4198 0
-5 -2099 4199 0
-5 -2100 4200 0
-6 -2097 4198 0
-6 -2098 4199 0
-6 -2099 4200 0
-6 -2100 4197 0
-7 -2097 4199 0
-7 -2098 4200 0
-7 -2099 4197 0
-7 -2100 4198 0
-8 -2097 4200 0
-8 -2098 4197 0
-8 -2099 4198 0
-8 -2100 4199 0
4201 4202 4203 4204 0
-4201 -4202 0
-4201 -4203 0
-4201 -4204 0
-4202 -4203 0
-4202 -4204 0
-4203 -4204 0
-5 -2101 4205 0
-5 -2102 4206 0
-5 -2103 4207 0
-5 -2104 4208 0
-6 -2101 4206 0
-6 -2102 4207 0
-6 -2103 4208 0
-6 -2104 4205 0
-7 -2101 4207 0
-7 -2102 4208 0
-7 -2103 4205 0
-7 -2104 4206 0
-8 -2101 4208 0
-8 -2102 4205 0
-8 -2103 4206 0
-8 -2104 4207 0
-9 -1401 4209 0
-9 -1402 4210 0
-9 -1403 4211 0
-9 -1404 4212 0
-10 -1401 4210 0
-10 -1402 4211 0
-10 -1403 4212 0
-10 -1404 4209 0
-11 -1401 4211 0
-11 -1402 4212 0
-11 -1403 4209 0
-11 -1404 4210 0
-12 -1401 4212 0
-12 -1402 4209 0
-12 -1403 4210 0
-12 -1404 4211 0
-5 -2105 4213 0
-5 -2106 4214 0
-5 -2107 4215 0
-5 -2108 4216 0
-6 -2105 4214 0
-6 -2106 4215 0
-6 -2107 4216 0
-6 -2108 4213 0
-7 -2105 4215 0
-7 -2106 4216 0
-7 -2107 4213 0
-7 -2108 4214 0
-8 -2105 4216 0
-8 -2106 4213 0
-8 -2107 4214 0
-8 -2108 4215 0
-17 -841 4217 0
-17 -842 4218 0
-17 -843 4219 0
-17 -844 4220 0
-18 -841 4218 0
-18 -842 4219 0
-18 -843 4220 0
-18 -844 4217 0
-19 -841 4219 0
-19 -842 4220 0
-19 -843 4217 0
-19 -844 4218 0
-20 -841 4220 0
-20 -842 4217 0
-20 -843 4218 0
-20 -844 4219 0
-5 -2109 4221 0
-5 -2110 4222 0
-5 -2111 4223 0
-5 -2112 4224 0
-6 -2109 4222 0
-6 -2110 4223 0
-6 -2111 4224 0
-6 -2112 4221 0
-7 -2109 4223 0
-7 -2110 4224 0
-7 -2111 4221 0
-7 -2112 4222 0
-8 -2109 4224 0
-8 -2110 4221 0
-8 -2111 4222 0
-8 -2112 4223 0
-25 -601 4225 0
-25 -602 4226 0
-25 -603 4227 0
-25 -604 4228 0
-26 -601 4226 0
-26 -602 4227 0
-26 -603 4228 0
-26 -604 4225 0
-27 -601 4227 0
-27 -602 4228 0
-27 -603 4225 0
-27 -604 4226 0
-28 -601 4228 0
-28 -602 4225 0
-28 -603 4226 0
-28 -604 4227 0
-5 -2113 4229 0
-5 -2114 4230 0
-5 -2115 4231 0
-5 -2116 4232 0
-6 -2113 4230 0
-6 -2114 4231 0
-6 -2115 4232 0
-6 -2116 4229 0
-7 -2113 4231 0
-7 -2114 4232 0
-7 -2115 4229 0
-7 -2116 4230 0
-8 -2113 4232 0
-8 -2114 4229 0
-8 -2115 4230 0
-8 -2116 4231 0
-9 -1409 4233 0
-9 -1410 4234 0
-9 -1411 4235 0
-9 -1412 4236 0
-10 -1409 4234 0
-10 -1410 4235 0
-10 -1411 4236 0
-10 -1412 4233 0
-11 -1409 4235 0
-11 -1410 4236 0
-11 -1411 4233 0
-11 -1412 4234 0
-12 -1409 4236 0
-12 -1410 4233 0
-12 -1411 4234 0
-12 -1412 4235 0
-5 -2117 4237 0
-5 -2118 4238 0
-5 -2119 4239 0
-5 -2120 4240 0
-6 -2117 4238 0
-6 -2118 4239 0
-6 -2119 4240 0
-6 -2120 4237 0
-7 -2117 4239 0
-7 -2118 4240 0
-7 -2119 4237 0
-7 -2120 4238 0
-8 -2117 4240 0
-8 -2118 4237 0
-8 -2119 4238 0
-8 -2120 4239 0
4241 4242 4243 4244 0
-4241 -4242 0
-4241 -4243 0
-4241 -4244 0
-4242 -4243 0
-4242 -4244 0
-4243 -4244 0
-5 -2121 4245 0
-5 -2122 4246 0
-5 -2123 4247 0
-5 -2124 4248 0
-6 -2121 4246 0
-6 -2122 4247 0
-6 -2123 4248 0
-6 -2124 4245 0
-7 -2121 4247 0
-7 -2122 4248 0
-7 -2123 4245 0
-7 -2124 4246 0
-8 -2121 4248 0
-8 -2122 4245 0
-8 -2123 4246 0
-8 -2124 4247 0
4249 4250 4251 4252 0
-4249 -4250 0
-4249 -4251 0
-4249 -4252 0
-4250 -4251 0
-4250 -4252 0
-4251 -4252 0
-5 -2125 4253 0
-5 -2126 4254 0
-5 -2127 4255 0
-5 -2128 4256 0
-6 -2125 4254 0
-6 -2126 4255 0
-6 -2127 4256 0
-6 -2128 4253 0
-7 -2125 4255 0
-7 -2126 4256 0
-7 -2127 4253 0
-7 -2128 4254 0
-8 -2125 4256 0
-8 -2126 4253 0
-8 -2127 4254 0
-8 -2128 4255 0
-9 -1417 4257 0
-9 -1418 4258 0
-9 -1419 4259 0
-9 -1420 4260 0
-10 -1417 4258 0
-10 -1418 4259 0
-10 -1419 4260 0
-10 -1420 4257 0
-11 -1417 4259 0
-11 -1418 4260 0
-11 -1419 4257 0
-11 -1420 4258 0
-12 -1417 4260 0
-12 -1418 4257 0
-12 -1419 4258 0
-12 -1420 4259 0
-5 -2129 4261 0
-5 -2130 4262 0
-5 -2131 4263 0
-5 -2132 4264 0
-6 -2129 4262 0
-6 -2130 4263 0
-6 -2131 4264 0
-6 -2132 4261 0
-7 -2129 4263 0
-7 -2130 4264 0
-7 -2131 4261 0
-7 -2132 4262 0
-8 -2129 4264 0
-8 -2130 4261 0
-8 -2131 4262 0
-8 -2132 4263 0
-41 -385 4265 0
-41 -386 4266 0
-41 -387 4267 0
-41 -388 4268 0
-42 -385 4266 0
-42 -386 4267 0
-42 -387 4268 0
-42 -388 4265 0
-43 -385 4267 0
-43 -386 4268 0
-43 -387 4265 0
-43 -388 4266 0
-44 -385 4268 0
-44 -386 4265 0
-44 -387 4266 0
-44 -388 4267 0
-5 -2133 4269 0
-5 -2134 4270 0
-5 -2135 4271 0
-5 -2136 4272 0
-6 -2133 4270 0
-6 -2134 4271 0
-6 -2135 4272 0
-6 -2136 4269 0
-7 -2133 4271 0
-7 -2134 4272 0
-7 -2135 4269 0
-7 -2136 4270 0
-8 -2133 4272 0
-8 -2134 4269 0
-8 -2135 4270 0
-8 -2136 4271 0
4273 4274 4275 4276 0
-4273 -4274 0
-4273 -4275 0
-4273 -4276 0
-4274 -4275 0
-4274 -4276 0
-4275 -4276 0
-5 -2137 4277 0
-5 -2138 4278 0
-5 -2139 4279 0
-5 -2140 4280 0
-6 -2137 4278 0
-6 -2138 4279 0
-6 -2139 4280 0
-6 -2140 4277 0
-7 -2137 4279 0
-7 -2138 4280 0
-7 -2139 4277 0
-7 -2140 4278 0
-8 -2137 4280 0
-8 -2138 4277 0
-8 -2139 4278 0
-8 -2140 4279 0
-9 -1425 4281 0
-9 -1426 4282 0
-9 -1427 4283 0
-9 -1428 4284 0
-10 -1425 4282 0
-10 -1426 4283 0
-10 -1427 4284 0
-10 -1428 4281 0
-11 -1425 4283 0
-11 -1426 4284 0
-11 -1427 4281 0
-11 -1428 4282 0
-12 -1425 4284 0
-12 -1426 4281 0
-12 -1427 4282 0
-12 -1428 4283 0
-5 -2141 4285 0
-5 -2142 4286 0
-5 -2143 4287 0
-5 -2144 4288 0
-6 -2141 4286 0
-6 -2142 4287 0
-6 -2143 4288 0
-6 -2144 4285 0
-7 -2141 4287 0
-7 -2142 4288 0
-7 -2143 4285 0
-7 -2144 4286 0
-8 -2141 4288 0
-8 -2142 4285 0
-8 -2143 4286 0
-8 -2144 4287 0
-113 -145 4289 0
-113 -146 4290 0
-113 -147 4291 0
-113 -148 4292 0
-114 -145 4290 0
-114 -146 4291 0
-114 -147 4292 0
-114 -148 4289 0
-115 -145 4291 0
-115 -146 4292 0
-115 -147 4289 0
-115 -148 4290 0
-116 -145 4292 0
-116 -146 4289 0
-116 -147 4290 0
-116 -148 4291 0
-5 -2145 4293 0
-5 -2146 4294 0
-5 -2147 4295 0
-5 -2148 4296 0
-6 -2145 4294 0
-6 -2146 4295 0
-6 -2147 4296 0
-6 -2148 4293 0
-7 -2145 4295 0
-7 -2146 4296 0
-7 -2147 4293 0
-7 -2148 4294 0
-8 -2145 4296 0
-8 -2146 4293 0
-8 -2147 4294 0
-8 -2148 4295 0
-17 -857 4297 0
-17 -858 4298 0
-17 -859 4299 0
-17 -860 4300 0
-18 -857 4298 0
-18 -858 4299 0
-18 -859 4300 0
-18 -860 4297 0
-19 -857 4299 0
-19 -858 4300 0
-19 -859 4297 0
-19 -860 4298 0
-20 -857 4300 0
-20 -858 4297 0
-20 -859 4298 0
-20 -860 4299 0
-5 -2149 4301 0
-5 -2150 4302 0
-5 -2151 4303 0
-5 -2152 4304 0
-6 -2149 4302 0
-6 -2150 4303 0
-6 -2151 4304 0
-6 -2152 4301 0
-7 -2149 4303 0
-7 -2150 4304 0
-7 -2151 4301 0
-7 -2152 4302 0
-8 -2149 4304 0
-8 -2150 4301 0
-8 -2151 4302 0
-8 -2152 4303 0
-9 -1433 4305 0
-9 -1434 4306 0
-9 -1435 4307 0
-9 -1436 4308 0
-10 -1433 4306 0
-10 -1434 4307 0
-10 -1435 4308 0
-10 -1436 4305 0
-11 -1433 4307 0
-11 -1434 4308 0
-11 -1435 4305 0
-11 -1436 4306 0
-12 -1433 4308 0
-12 -1434 4305 0
-12 -1435 4306 0
-12 -1436 4307 0
-5 -2153 4309 0
-5 -2154 4310 0
-5 -2155 4311 0
-5 -2156 4312 0
-6 -2153 4310 0
-6 -2154 4311 0
-6 -2155 4312 0
-6 -2156 4309 0
-7 -2153 4311 0
-7 -2154 4312 0
-7 -2155 4309 0
-7 -2156 4310 0
-8 -2153 4312 0
-8 -2154 4309 0
-8 -2155 4310 0
-8 -2156 4311 0
-49 -329 4313 0
-49 -330 4314 0
-49 -331 4315 0
-49 -332 4316 0
-50 -329 4314 0
-50 -330 4315 0
-50 -331 4316 0
-50 -332 4313 0
-51 -329 4315 0
-51 -330 4316 0
-51 -331 4313 0
-51 -332 4314 0
-52 -329 4316 0
-52 -330 4313 0
-52 -331 4314 0
-52 -332 4315 0
-5 -2157 4317 0
-5 -2158 4318 0
-5 -2159 4319 0
-5 -2160 4320 0
-6 -2157 4318 0
-6 -2158 4319 0
-6 -2159 4320 0
-6 -2160 4317 0
-7 -2157 4319 0
-7 -2158 4320 0
-7 -2159 4317 0
-7 -2160 4318 0
-8 -2157 4320 0
-8 -2158 4317 0
-8 -2159 4318 0
-8 -2160 4319 0
-89 -185 4321 0
-89 -186 4322 0
-89 -187 4323 0
-89 -188 4324 0
-90 -185 4322 0
-90 -186 4323 0
-90 -187 4324 0
-90 -188 4321 0
-91 -185 4323 0
-91 -186 4324 0
-91 -187 4321 0
-91 -188 4322 0
-92 -185 4324 0
-92 -186 4321 0
-92 -187 4322 0
-92 -188 4323 0
-5 -2161 4325 0
-5 -2162 4326 0
-5 -2163 4327 0
-5 -2164 4328 0
-6 -2161 4326 0
-6 -2162 4327 0
-6 -2163 4328 0
-6 -2164 4325 0
-7 -2161 4327 0
-7 -2162 4328 0
-7 -2163 4325 0
-7 -2164 4326 0
-8 -2161 4328 0
-8 -2162 4325 0
-8 -2163 4326 0
-8 -2164 4327 0
-9 -1441 4329 0
-9 -1442 4330 0
-9 -1443 4331 0
-9 -1444 4332 0
-10 -1441 4330 0
-10 -1442 4331 0
-10 -1443 4332 0
-10 -1444 4329 0
-11 -1441 4331 0
-11 -1442 4332 0
-11 -1443 4329 0
-11 -1444 4330 0
-12 -1441 4332 0
-12 -1442 4329 0
-12 -1443 4330 0
-12 -1444 4331 0
-5 -2165 4333 0
-5 -2166 4334 0
-5 -2167 4335 0
-5 -2168 4336 0
-6 -2165 4334 0
-6 -2166 4335 0
-6 -2167 4336 0
-6 -2168 4333 0
-7 -2165 4335 0
-7 -2166 4336 0
-7 -2167 4333 0
-7 -2168 4334 0
-8 -2165 4336 0
-8 -2166 4333 0
-8 -2167 4334 0
-8 -2168 4335 0
-17 -865 4337 0
-17 -866 4338 0
-17 -867 4339 0
-17 -868 4340 0
-18 -865 4338 0
-18 -866 4339 0
-18 -867 4340 0
-18 -868 4337 0
-19 -865 4339 0
-19 -866 4340 0
-19 -867 4337 0
-19 -868 4338 0
-20 -865 4340 0
-20 -866 4337 0
-20 -867 4338 0
-20 -868 4339 0
-5 -2169 4341 0
-5 -2170 4342 0
-5 -2171 4343 0
-5 -2172 4344 0
-6 -2169 4342 0
-6 -2170 4343 0
-6 -2171 4344 0
-6 -2172 4341 0
-7 -2169 4343 0
-7 -2170 4344 0
-7 -2171 4341 0
-7 -2172 4342 0
-8 -2169 4344 0
-8 -2170 4341 0
-8 -2171 4342 0
-8 -2172 4343 0
4345 4346 4347 4348 0
-4345 -4346 0
-4345 -4347 0
-4345 -4348 0
-4346 -4347 0
-4346 -4348 0
-4347 -4348 0
-5 -2173 4349 0
-5 -2174 4350 0
-5 -2175 4351 0
-5 -2176 4352 0
-6 -2173 4350 0
-6 -2174 4351 0
-6 -2175 4352 0
-6 -2176 4349 0
-7 -2173 4351 0
-7 -2174 4352 0
-7 -2175 4349 0
-7 -2176 4350 0
-8 -2173 4352 0
-8 -2174 4349 0
-8 -2175 4350 0
-8 -2176 4351 0
-9 -1449 4353 0
-9 -1450 4354 0
-9 -1451 4355 0
-9 -1452 4356 0
-10 -1449 4354 0
-10 -1450 4355 0
-10 -1451 4356 0
-10 -1452 4353 0
-11 -1449 4355 0
-11 -1450 4356 0
-11 -1451 4353 0
-11 -1452 4354 0
-12 -1449 4356 0
-12 -1450 4353 0
-12 -1451 4354 0
-12 -1452 4355 0
-5 -2177 4357 0
-5 -2178 4358 0
-5 -2179 4359 0
-5 -2180 4360 0
-6 -2177 4358 0
-6 -2178 4359 0
-6 -2179 4360 0
-6 -2180 4357 0
-7 -2177 4359 0
-7 -2178 4360 0
-7 -2179 4357 0
-7 -2180 4358 0
-8 -2177 4360 0
-8 -2178 4357 0
-8 -2179 4358 0
-8 -2180 4359 0
4361 4362 4363 4364 0
-4361 -4362 0
-4361 -4363 0
-4361 -4364 0
-4362 -4363 0
-4362 -4364 0
-4363 -4364 0
-5 -2181 4365 0
-5 -2182 4366 0
-5 -2183 4367 0
-5 -2184 4368 0
-6 -2181 4366 0
-6 -2182 4367 0
-6 -2183 4368 0
-6 -2184 4365 0
-7 -2181 4367 0
-7 -2182 4368 0
-7 -2183 4365 0
-7 -2184 4366 0
-8 -2181 4368 0
-8 -2182 4365 0
-8 -2183 4366 0
-8 -2184 4367 0
4369 4370 4371 4372 0
-4369 -4370 0
-4369 -4371 0
-4369 -4372 0
-4370 -4371 0
-4370 -4372 0
-4371 -4372 0
-5 -2185 4373 0
-5 -2186 4374 0
-5 -2187 4375 0
-5 -2188 4376 0
-6 -2185 4374 0
-6 -2186 4375 0
-6 -2187 4376 0
-6 -2188 4373 0
-7 -2185 4375 0
-7 -2186 4376 0
-7 -2187 4373 0
-7 -2188 4374 0
-8 -2185 4376 0
-8 -2186 4373 0
-8 -2187 4374 0
-8 -2188 4375 0
-9 -1457 4377 0
-9 -1458 4378 0
-9 -1459 4379 0
-9 -1460 4380 0
-10 -1457 4378 0
-10 -1458 4379 0
-10 -1459 4380 0
-10 -1460 4377 0
-11 -1457 4379 0
-11 -1458 4380 0
-11 -1459 4377 0
-11 -1460 4378 0
-12 -1457 4380 0
-12 -1458 4377 0
-12 -1459 4378 0
-12 -1460 4379 0
-5 -2189 4381 0
-5 -2190 4382 0
-5 -2191 4383 0
-5 -2192 4384 0
-6 -2189 4382 0
-6 -2190 4383 0
-6 -2191 4384 0
-6 -2192 4381 0
-7 -2189 4383 0
-7 -2190 4384 0
-7 -2191 4381 0
-7 -2192 4382 0
-8 -2189 4384 0
-8 -2190 4381 0
-8 -2191 4382 0
-8 -2192 4383 0
4385 4386 4387 4388 0
-4385 -4386 0
-4385 -4387 0
-4385 -4388 0
-4386 -4387 0
-4386 -4388 0
-4387 -4388 0
-5 -2193 4389 0
-5 -2194 4390 0
-5 -2195 4391 0
-5 -2196 4392 0
-6 -2193 4390 0
-6 -2194 4391 0
-6 -2195 4392 0
-6 -2196 4389 0
-7 -2193 4391 0
-7 -2194 4392 0
-7 -2195 4389 0
-7 -2196 4390 0
-8 -2193 4392 0
-8 -2194 4389 0
-8 -2195 4390 0
-8 -2196 4391 0
-25 -625 4393 0
-25 -626 4394 0
-25 -627 4395 0
-25 -628 4396 0
-26 -625 4394 0
-26 -626 4395 0
-26 -627 4396 0
-26 -628 4393 0
-27 -625 4395 0
-27 -626 4396 0
-27 -627 4393 0
-27 -628 4394 0
-28 -625 4396 0
-28 -626 4393 0
-28 -627 4394 0
-28 -628 4395 0
-5 -2197 4397 0
-5 -2198 4398 0
-5 -2199 4399 0
-5 -2200 4400 0
-6 -2197 4398 0
-6 -2198 4399 0
-6 -2199 4400 0
-6 -2200 4397 0
-7 -2197 4399 0
-7 -2198 4400 0
-7 -2199 4397 0
-7 -2200 4398 0
-8 -2197 4400 0
-8 -2198 4397 0
-8 -2199 4398 0
-8 -2200 4399 0
-9 -1465 4401 0
-9 -1466 4402 0
-9 -1467 4403 0
-9 -1468 4404 0
-10 -1465 4402 0
-10 -1466 4403 0
-10 -1467 4404 0
-10 -1468 4401 0
-11 -1465 4403 0
-11 -1466 4404 0
-11 -1467 4401 0
-11 -1468 4402 0
-12 -1465 4404 0
-12 -1466 4401 0
-12 -1467 4402 0
-12 -1468 4403 0
-5 -2201 4405 0
-5 -2202 4406 0
-5 -2203 4407 0
-5 -2204 4408 0
-6 -2201 4406 0
-6 -2202 4407 0
-6 -2203 4408 0
-6 -2204 4405 0
-7 -2201 4407 0
-7 -2202 4408 0
-7 -2203 4405 0
-7 -2204 4406 0
-8 -2201 4408 0
-8 -2202 4405 0
-8 -2203 4406 0
-8 -2204 4407 0
4409 4410 4411 4412 0
-4409 -4410 0
-4409 -4411 0
-4409 -4412 0
-4410 -4411 0
-4410 -4412 0
-4411 -4412 0
-5 -2205 4413 0
-5 -2206 4414 0
-5 -2207 4415 0
-5 -2208 4416 0
-6 -2205 4414 0
-6 -2206 4415 0
-6 -2207 4416 0
-6 -2208 4413 0
-7 -2205 4415 0
-7 -2206 4416 0
-7 -2207 4413 0
-7 -2208 4414 0
-8 -2205 4416 0
-8 -2206 4413 0
-8 -2207 4414 0
-8 -2208 4415 0
-17 -881 4417 0
-17 -882 4418 0
-17 -883 4419 0
-17 -884 4420 0
-18 -881 4418 0
-18 -882 4419 0
-18 -883 4420 0
-18 -884 4417 0
-19 -881 4419 0
-19 -882 4420 0
-19 -883 4417 0
-19 -884 4418 0
-20 -881 4420 0
-20 -882 4417 0
-20 -883 4418 0
-20 -884 4419 0
-5 -2209 4421 0
-5 -2210 4422 0
-5 -2211 4423 0
-5 -2212 4424 0
-6 -2209 4422 0
-6 -2210 4423 0
-6 -2211 4424 0
-6 -2212 4421 0
-7 -2209 4423 0
-7 -2210 4424 0
-7 -2211 4421 0
-7 -2212 4422 0
-8 -2209 4424 0
-8 -2210 4421 0
-8 -2211 4422 0
-8 -2212 4423 0
-9 -1473 4425 0
-9 -1474 4426 0
-9 -1475 4427 0
-9 -1476 4428 0
-10 -1473 4426 0
-10 -1474 4427 0
-10 -1475 4428 0
-10 -1476 4425 0
-11 -1473 4427 0
-11 -1474 4428 0
-11 -1475 4425 0
-11 -1476 4426 0
-12 -1473 4428 0
-12 -1474 4425 0
-12 -1475 4426 0
-12 -1476 4427 0
-5 -2213 4429 0
-5 -2214 4430 0
-5 -2215 4431 0
-5 -2216 4432 0
-6 -2213 4430 0
-6 -2214 4431 0
-6 -2215 4432 0
-6 -2216 4429 0
-7 -2213 4431 0
-7 -2214 4432 0
-7 -2215 4429 0
-7 -2216 4430 0
-8 -2213 4432 0
-8 -2214 4429 0
-8 -2215 4430 0
-8 -2216 4431 0
4433 4434 4435 4436 0
-4433 -4434 0
-4433 -4435 0
-4433 -4436 0
-4434 -4435 0
-4434 -4436 0
-4435 -4436 0
-5 -2217 4437 0
-5 -2218 4438 0
-5 -2219 4439 0
-5 -2220 4440 0
-6 -2217 4438 0
-6 -2218 4439 0
-6 -2219 4440 0
-6 -2220 4437 0
-7 -2217 4439 0
-7 -2218 4440 0
-7 -2219 4437 0
-7 -2220 4438 0
-8 -2217 4440 0
-8 -2218 4437 0
-8 -2219 4438 0
-8 -2220 4439 0
-41 -401 4441 0
-41 -402 4442 0
-41 -403 4443 0
-41 -404 4444 0
-42 -401 4442 0
-42 -402 4443 0
-42 -403 4444 0
-42 -404 4441 0
-43 -401 4443 0
-43 -402 4444 0
-43 -403 4441 0
-43 -404 4442 0
-44 -401 4444 0
-44 -402 4441 0
-44 -403 4442 0
-44 -404 4443 0
-5 -2221 4445 0
-5 -2222 4446 0
-5 -2223 4447 0
-5 -2224 4448 0
-6 -2221 4446 0
-6 -2222 4447 0
-6 -2223 4448 0
-6 -2224 4445 0
-7 -2221 4447 0
-7 -2222 4448 0
-7 -2223 4445 0
-7 -2224 4446 0
-8 -2221 4448 0
-8 -2222 4445 0
-8 -2223 4446 0
-8 -2224 4447 0
-9 -1481 4449 0
-9 -1482 4450 0
-9 -1483 4451 0
-9 -1484 4452 0
-10 -1481 4450 0
-10 -1482 4451 0
-10 -1483 4452 0
-10 -1484 4449 0
-11 -1481 4451 0
-11 -1482 4452 0
-11 -1483 4449 0
-11 -1484 4450 0
-12 -1481 4452 0
-12 -1482 4449 0
-12 -1483 4450 0
-12 -1484 4451 0
-5 -2225 4453 0
-5 -2226 4454 0
-5 -2227 4455 0
-5 -2228 4456 0
-6 -2225 4454 0
-6 -2226 4455 0
-6 -2227 4456 0
-6 -2228 4453 0
-7 -2225 4455 0
-7 -2226 4456 0
-7 -2227 4453 0
-7 -2228 4454 0
-8 -2225 4456 0
-8 -2226 4453 0
-8 -2227 4454 0
-8 -2228 4455 0
-17 -889 4457 0
-17 -890 4458 0
-17 -891 4459 0
-17 -892 4460 0
-18 -889 4458 0
-18 -890 4459 0
-18 -891 4460 0
-18 -892 4457 0
-19 -889 4459 0
-19 -890 4460 0
-19 -891 4457 0
-19 -892 4458 0
-20 -889 4460 0
-20 -890 4457 0
-20 -891 4458 0
-20 -892 4459 0
-5 -2229 4461 0
-5 -2230 4462 0
-5 -2231 4463 0
-5 -2232 4464 0
-6 -2229 4462 0
-6 -2230 4463 0
-6 -2231 4464 0
-6 -2232 4461 0
-7 -2229 4463 0
-7 -2230 4464 0
-7 -2231 4461 0
-7 -2232 4462 0
-8 -2229 4464 0
-8 -2230 4461 0
-8 -2231 4462 0
-8 -2232 4463 0
4465 4466 4467 4468 0
-4465 -4466 0
-4465 -4467 0
-4465 -4468 0
-4466 -4467 0
-4466 -4468 0
-4467 -4468 0
-5 -2233 4469 0
-5 -2234 4470 0
-5 -2235 4471 0
-5 -2236 4472 0
-6 -2233 4470 0
-6 -2234 4471 0
-6 -2235 4472 0
-6 -2236 4469 0
-7 -2233 4471 0
-7 -2234 4472 0
-7 -2235 4469 0
-7 -2236 4470 0
-8 -2233 4472 0
-8 -2234 4469 0
-8 -2235 4470 0
-8 -2236 4471 0
-9 -1489 4473 0
-9 -1490 4474 0
-9 -1491 4475 0
-9 -1492 4476 0
-10 -1489 4474 0
-10 -1490 4475 0
-10 -1491 4476 0
-10 -1492 4473 0
-11 -1489 4475 0
-11 -1490 4476 0
-11 -1491 4473 0
-11 -1492 4474 0
-12 -1489 4476 0
-12 -1490 4473 0
-12 -1491 4474 0
-12 -1492 4475 0
-5 -2237 4477 0
-5 -2238 4478 0
-5 -2239 4479 0
-5 -2240 4480 0
-6 -2237 4478 0
-6 -2238 4479 0
-6 -2239 4480 0
-6 -2240 4477 0
-7 -2237 4479 0
-7 -2238 4480 0
-7 -2239 4477 0
-7 -2240 4478 0
-8 -2237 4480 0
-8 -2238 4477 0
-8 -2239 4478 0
-8 -2240 4479 0
-73 -233 4481 0
-73 -234 4482 0
-73 -235 4483 0
-73 -236 4484 0
-74 -233 4482 0
-74 -234 4483 0
-74 -235 4484 0
-74 -236 4481 0
-75 -233 4483 0
-75 -234 4484 0
-75 -235 4481 0
-75 -236 4482 0
-76 -233 4484 0
-76 -234 4481 0
-76 -235 4482 0
-76 -236 4483 0
-5 -2241 4485 0
-5 -2242 4486 0
-5 -2243 4487 0
-5 -2244 4488 0
-6 -2241 4486 0
-6 -2242 4487 0
-6 -2243 4488 0
-6 -2244 4485 0
-7 -2241 4487 0
-7 -2242 4488 0
-7 -2243 4485 0
-7 -2244 4486 0
-8 -2241 4488 0
-8 -2242 4485 0
-8 -2243 4486 0
-8 -2244 4487 0
4489 4490 4491 4492 0
-4489 -4490 0
-4489 -4491 0
-4489 -4492 0
-4490 -4491 0
-4490 -4492 0
-4491 -4492 0
-5 -2245 4493 0
-5 -2246 4494 0
-5 -2247 4495 0
-5 -2248 4496 0
-6 -2245 4494 0
-6 -2246 4495 0
-6 -2247 4496 0
-6 -2248 4493 0
-7 -2245 4495 0
-7 -2246 4496 0
-7 -2247 4493 0
-7 -2248 4494 0
-8 -2245 4496 0
-8 -2246 4493 0
-8 -2247 4494 0
-8 -2248 4495 0
-9 -1497 4497 0
-9 -1498 4498 0
-9 -1499 4499 0
-9 -1500 4500 0
-10 -1497 4498 0
-10 -1498 4499 0
-10 -1499 4500 0
-10 -1500 4497 0
-11 -1497 4499 0
-11 -1498 4500 0
-11 -1499 4497 0
-11 -1500 4498 0
-12 -1497 4500 0
-12 -1498 4497 0
-12 -1499 4498 0
-12 -1500 4499 0
-5 -2249 4501 0
-5 -2250 4502 0
-5 -2251 4503 0
-5 -2252 4504 0
-6 -2249 4502 0
-6 -2250 4503 0
-6 -2251 4504 0
-6 -2252 4501 0
-7 -2249 4503 0
-7 -2250 4504 0
-7 -2251 4501 0
-7 -2252 4502 0
-8 -2249 4504 0
-8 -2250 4501 0
-8 -2251 4502 0
-8 -2252 4503 0
-25 -641 4505 0
-25 -642 4506 0
-25 -643 4507 0
-25 -644 4508 0
-26 -641 4506 0
-26 -642 4507 0
-26 -643 4508 0
-26 -644 4505 0
-27 -641 4507 0
-27 -642 4508 0
-27 -643 4505 0
-27 -644 4506 0
-28 -641 4508 0
-28 -642 4505 0
-28 -643 4506 0
-28 -644 4507 0
-5 -2253 4509 0
-5 -2254 4510 0
-5 -2255 4511 0
-5 -2256 4512 0
-6 -2253 4510 0
-6 -2254 4511 0
-6 -2255 4512 0
-6 -2256 4509 0
-7 -2253 4511 0
-7 -2254 4512 0
-7 -2255 4509 0
-7 -2256 4510 0
-8 -2253 4512 0
-8 -2254 4509 0
-8 -2255 4510 0
-8 -2256 4511 0
4513 4514 4515 4516 0
-4513 -4514 0
-4513 -4515 0
-4513 -4516 0
-4514 -4515 0
-4514 -4516 0
-4515 -4516 0
-5 -2257 4517 0
-5 -2258 4518 0
-5 -2259 4519 0
-5 -2260 4520 0
-6 -2257 4518 0
-6 -2258 4519 0
-6 -2259 4520 0
-6 -2260 4517 0
-7 -2257 4519 0
-7 -2258 4520 0
-7 -2259 4517 0
-7 -2260 4518 0
-8 -2257 4520 0
-8 -2258 4517 0
-8 -2259 4518 0
-8 -2260 4519 0
-9 -1505 4521 0
-9 -1506 4522 0
-9 -1507 4523 0
-9 -1508 4524 0
-10 -1505 4522 0
-10 -1506 4523 0
-10 -1507 4524 0
-10 -1508 4521 0
-11 -1505 4523 0
-11 -1506 4524 0
-11 -1507 4521 0
-11 -1508 4522 0
-12 -1505 4524 0
-12 -1506 4521 0
-12 -1507 4522 0
-12 -1508 4523 0
-5 -2261 4525 0
-5 -2262 4526 0
-5 -2263 4527 0
-5 -2264 4528 0
-6 -2261 4526 0
-6 -2262 4527 0
-6 -2263 4528 0
-6 -2264 4525 0
-7 -2261 4527 0
-7 -2262 4528 0
-7 -2263 4525 0
-7 -2264 4526 0
-8 -2261 4528 0
-8 -2262 4525 0
-8 -2263 4526 0
-8 -2264 4527 0
-41 -409 4529 0
-41 -410 4530 0
-41 -411 4531 0
-41 -412 4532 0
-42 -409 4530 0
-42 -410 4531 0
-42 -411 4532 0
-42 -412 4529 0
-43 -409 4531 0
-43 -410 4532 0
-43 -411 4529 0
-43 -412 4530 0
-44 -409 4532 0
-44 -410 4529 0
-44 -411 4530 0
-44 -412 4531 0
-5 -2265 4533 0
-5 -2266 4534 0
-5 -2267 4535 0
-5 -2268 4536 0
-6 -2265 4534 0
-6 -2266 4535 0
-6 -2267 4536 0
-6 -2268 4533 0
-7 -2265 4535 0
-7 -2266 4536 0
-7 -2267 4533 0
-7 -2268 4534 0
-8 -2265 4536 0
-8 -2266 4533 0
-8 -2267 4534 0
-8 -2268 4535 0
-17 -905 4537 0
-17 -906 4538 0
-17 -907 4539 0
-17 -908 4540 0
-18 -905 4538 0
-18 -906 4539 0
-18 -907 4540 0
-18 -908 4537 0
-19 -905 4539 0
-19 -906 4540 0
-19 -907 4537 0
-19 -908 4538 0
-20 -905 4540 0
-20 -906 4537 0
-20 -907 4538 0
-20 -908 4539 0
-5 -2269 4541 0
-5 -2270 4542 0
-5 -2271 4543 0
-5 -2272 4544 0
-6 -2269 4542 0
-6 -2270 4543 0
-6 -2271 4544 0
-6 -2272 4541 0
-7 -2269 4543 0
-7 -2270 4544 0
-7 -2271 4541 0
-7 -2272 4542 0
-8 -2269 4544 0
-8 -2270 4541 0
-8 -2271 4542 0
-8 -2272 4543 0
-9 -1513 4545 0
-9 -1514 4546 0
-9 -1515 4547 0
-9 -1516 4548 0
-10 -1513 4546 0
-10 -1514 4547 0
-10 -1515 4548 0
-10 -1516 4545 0
-11 -1513 4547 0
-11 -1514 4548 0
-11 -1515 4545 0
-11 -1516 4546 0
-12 -1513 4548 0
-12 -1514 4545 0
-12 -1515 4546 0
-12 -1516 4547 0
-5 -2273 4549 0
-5 -2274 4550 0
-5 -2275 4551 0
-5 -2276 4552 0
-6 -2273 4550 0
-6 -2274 4551 0
-6 -2275 4552 0
-6 -2276 4549 0
-7 -2273 4551 0
-7 -2274 4552 0
-7 -2275 4549 0
-7 -2276 4550 0
-8 -2273 4552 0
-8 -2274 4549 0
-8 -2275 4550 0
-8 -2276 4551 0
-65 -265 4553 0
-65 -266 4554 0
-65 -267 4555 0
-65 -268 4556 0
-66 -265 4554 0
-66 -266 4555 0
-66 -267 4556 0
-66 -268 4553 0
-67 -265 4555 0
-67 -266 4556 0
-67 -267 4553 0
-67 -268 4554 0
-68 -265 4556 0
-68 -266 4553 0
-68 -267 4554 0
-68 -268 4555 0
-5 -2277 4557 0
-5 -2278 4558 0
-5 -2279 4559 0
-5 -2280 4560 0
-6 -2277 4558 0
-6 -2278 4559 0
-6 -2279 4560 0
-6 -2280 4557 0
-7 -2277 4559 0
-7 -2278 4560 0
-7 -2279 4557 0
-7 -2280 4558 0
-8 -2277 4560 0
-8 -2278 4557 0
-8 -2279 4558 0
-8 -2280 4559 0
-25 -649 4561 0
-25 -650 4562 0
-25 -651 4563 0
-25 -652 4564 0
-26 -649 4562 0
-26 -650 4563 0
-26 -651 4564 0
-26 -652 4561 0
-27 -649 4563 0
-27 -650 4564 0
-27 -651 4561 0
-27 -652 4562 0
-28 -649 4564 0
-28 -650 4561 0
-28 -651 4562 0
-28 -652 4563 0
-5 -2281 4565 0
-5 -2282 4566 0
-5 -2283 4567 0
-5 -2284 4568 0
-6 -2281 4566 0
-6 -2282 4567 0
-6 -2283 4568 0
-6 -2284 4565 0
-7 -2281 4567 0
-7 -2282 4568 0
-7 -2283 4565 0
-7 -2284 4566 0
-8 -2281 4568 0
-8 -2282 4565 0
-8 -2283 4566 0
-8 -2284 4567 0
-9 -1521 4569 0
-9 -1522 4570 0
-9 -1523 4571 0
-9 -1524 4572 0
-10 -1521 4570 0
-10 -1522 4571 0
-10 -1523 4572 0
-10 -1524 4569 0
-11 -1521 4571 0
-11 -1522 4572 0
-11 -1523 4569 0
-11 -1524 4570 0
-12 -1521 4572 0
-12 -1522 4569 0
-12 -1523 4570 0
-12 -1524 4571 0
-5 -2285 4573 0
-5 -2286 4574 0
-5 -2287 4575 0
-5 -2288 4576 0
-6 -2285 4574 0
-6 -2286 4575 0
-6 -2287 4576 0
-6 -2288 4573 0
-7 -2285 4575 0
-7 -2286 4576 0
-7 -2287 4573 0
-7 -2288 4574 0
-8 -2285 4576 0
-8 -2286 4573 0
-8 -2287 4574 0
-8 -2288 4575 0
-17 -913 4577 0
-17 -914 4578 0
-17 -915 4579 0
-17 -916 4580 0
-18 -913 4578 0
-18 -914 4579 0
-18 -915 4580 0
-18 -916 4577 0
-19 -913 4579 0
-19 -914 4580 0
-19 -915 4577 0
-19 -916 4578 0
-20 -913 4580 0
-20 -914 4577 0
-20 -915 4578 0
-20 -916 4579 0
-5 -2289 4581 0
-5 -2290 4582 0
-5 -2291 4583 0
-5 -2292 4584 0
-6 -2289 4582 0
-6 -2290 4583 0
-6 -2291 4584 0
-6 -2292 4581 0
-7 -2289 4583 0
-7 -2290 4584 0
-7 -2291 4581 0
-7 -2292 4582 0
-8 -2289 4584 0
-8 -2290 4581 0
-8 -2291 4582 0
-8 -2292 4583 0
-121 -145 4585 0
-121 -146 4586 0
-121 -147 4587 0
-121 -148 4588 0
-122 -145 4586 0
-122 -146 4587 0
-122 -147 4588 0
-122 -148 4585 0
-123 -145 4587 0
-123 -146 4588 0
-123 -147 4585 0
-123 -148 4586 0
-124 -145 4588 0
-124 -146 4585 0
-124 -147 4586 0
-124 -148 4587 0
-5 -2293 4589 0
-5 -2294 4590 0
-5 -2295 4591 0
-5 -2296 4592 0
-6 -2293 4590 0
-6 -2294 4591 0
-6 -2295 4592 0
-6 -2296 4589 0
-7 -2293 4591 0
-7 -2294 4592 0
-7 -2295 4589 0
-7 -2296 4590 0
-8 -2293 4592 0
-8 -2294 4589 0
-8 -2295 4590 0
-8 -2296 4591 0
-9 -1529 4593 0
-9 -1530 4594 0
-9 -1531 4595 0
-9 -1532 4596 0
-10 -1529 4594 0
-10 -1530 4595 0
-10 -1531 4596 0
-10 -1532 4593 0
-11 -1529 4595 0
-11 -1530 4596 0
-11 -1531 4593 0
-11 -1532 4594 0
-12 -1529 4596 0
-12 -1530 4593 0
-12 -1531 4594 0
-12 -1532 4595 0
-5 -2297 4597 0
-5 -2298 4598 0
-5 -2299 4599 0
-5 -2300 4600 0
-6 -2297 4598 0
-6 -2298 4599 0
-6 -2299 4600 0
-6 -2300 4597 0
-7 -2297 4599 0
-7 -2298 4600 0
-7 -2299 4597 0
-7 -2300 4598 0
-8 -2297 4600 0
-8 -2298 4597 0
-8 -2299 4598 0
-8 -2300 4599 0
4601 4602 4603 4604 0
-4601 -4602 0
-4601 -4603 0
-4601 -4604 0
-4602 -4603 0
-4602 -4604 0
-4603 -4604 0
-5 -2301 4605 0
-5 -2302 4606 0
-5 -2303 4607 0
-5 -2304 4608 0
-6 -2301 4606 0
-6 -2302 4607 0
-6 -2303 4608 0
-6 -2304 4605 0
-7 -2301 4607 0
-7 -2302 4608 0
-7 -2303 4605 0
-7 -2304 4606 0
-8 -2301 4608 0
-8 -2302 4605 0
-8 -2303 4606 0
-8 -2304 4607 0
4609 4610 4611 4612 0
-4609 -4610 0
-4609 -4611 0
-4609 -4612 0
-4610 -4611 0
-4610 -4612 0
-4611 -4612 0
-5 -2305 4613 0
-5 -2306 4614 0
-5 -2307 4615 0
-5 -2308 4616 0
-6 -2305 4614 0
-6 -2306 4615 0
-6 -2307 4616 0
-6 -2308 4613 0
-7 -2305 4615 0
-7 -2306 4616 0
-7 -2307 4613 0
-7 -2308 4614 0
-8 -2305 4616 0
-8 -2306 4613 0
-8 -2307 4614 0
-8 -2308 4615 0
-9 -1537 4617 0
-9 -1538 4618 0
-9 -1539 4619 0
-9 -1540 4620 0
-10 -1537 4618 0
-10 -1538 4619 0
-10 -1539 4620 0
-10 -1540 4617 0
-11 -1537 4619 0
-11 -1538 4620 0
-11 -1539 4617 0
-11 -1540 4618 0
-12 -1537 4620 0
-12 -1538 4617 0
-12 -1539 4618 0
-12 -1540 4619 0
-5 -2309 4621 0
-5 -2310 4622 0
-5 -2311 4623 0
-5 -2312 4624 0
-6 -2309 4622 0
-6 -2310 4623 0
-6 -2311 4624 0
-6 -2312 4621 0
-7 -2309 4623 0
-7 -2310 4624 0
-7 -2311 4621 0
-7 -2312 4622 0
-8 -2309 4624 0
-8 -2310 4621 0
-8 -2311 4622 0
-8 -2312 4623 0
-49 -353 4625 0
-49 -354 4626 0
-49 -355 4627 0
-49 -356 4628 0
-50 -353 4626 0
-50 -354 4627 0
-50 -355 4628 0
-50 -356 4625 0
-51 -353 4627 0
-51 -354 4628 0
-51 -355 4625 0
-51 -356 4626 0
-52 -353 4628 0
-52 -354 4625 0
-52 -355 4626 0
-52 -356 4627 0
-5 -2313 4629 0
-5 -2314 4630 0
-5 -2315 4631 0
-5 -2316 4632 0
-6 -2313 4630 0
-6 -2314 4631 0
-6 -2315 4632 0
-6 -2316 4629 0
-7 -2313 4631 0
-7 -2314 4632 0
-7 -2315 4629 0
-7 -2316 4630 0
-8 -2313 4632 0
-8 -2314 4629 0
-8 -2315 4630 0
-8 -2316 4631 0
-73 -241 4633 0
-73 -242 4634 0
-73 -243 4635 0
-73 -244 4636 0
-74 -241 4634 0
-74 -242 4635 0
-74 -243 4636 0
-74 -244 4633 0
-75 -241 4635 0
-75 -242 4636 0
-75 -243 4633 0
-75 -244 4634 0
-76 -241 4636 0
-76 -242 4633 0
-76 -243 4634 0
-76 -244 4635 0
-5 -2317 4637 0
-5 -2318 4638 0
-5 -2319 4639 0
-5 -2320 4640 0
-6 -2317 4638 0
-6 -2318 4639 0
-6 -2319 4640 0
-6 -2320 4637 0
-7 -2317 4639 0
-7 -2318 4640 0
-7 -2319 4637 0
-7 -2320 4638 0
-8 -2317 4640 0
-8 -2318 4637 0
-8 -2319 4638 0
-8 -2320 4639 0
-9 -1545 4641 0
-9 -1546 4642 0
-9 -1547 4643 0
-9 -1548 4644 0
-10 -1545 4642 0
-10 -1546 4643 0
-10 -1547 4644 0
-10 -1548 4641 0
-11 -1545 4643 0
-11 -1546 4644 0
-11 -1547 4641 0
-11 -1548 4642 0
-12 -1545 4644 0
-12 -1546 4641 0
-12 -1547 4642 0
-12 -1548 4643 0
-5 -2321 4645 0
-5 -2322 4646 0
-5 -2323 4647 0
-5 -2324 4648 0
-6 -2321 4646 0
-6 -2322 4647 0
-6 -2323 4648 0
-6 -2324 4645 0
-7 -2321 4647 0
-7 -2322 4648 0
-7 -2323 4645 0
-7 -2324 4646 0
-8 -2321 4648 0
-8 -2322 4645 0
-8 -2323 4646 0
-8 -2324 4647 0
4649 4650 4651 4652 0
-4649 -4650 0
-4649 -4651 0
-4649 -4652 0
-4650 -4651 0
-4650 -4652 0
-4651 -4652 0
-5 -2325 4653 0
-5 -2326 4654 0
-5 -2327 4655 0
-5 -2328 4656 0
-6 -2325 4654 0
-6 -2326 4655 0
-6 -2327 4656 0
-6 -2328 4653 0
-7 -2325 4655 0
-7 -2326 4656 0
-7 -2327 4653 0
-7 -2328 4654 0
-8 -2325 4656 0
-8 -2326 4653 0
-8 -2327 4654 0
-8 -2328 4655 0
-17 -929 4657 0
-17 -930 4658 0
-17 -931 4659 0
-17 -932 4660 0
-18 -929 4658 0
-18 -930 4659 0
-18 -931 4660 0
-18 -932 4657 0
-19 -929 4659 0
-19 -930 4660 0
-19 -931 4657 0
-19 -932 4658 0
-20 -929 4660 0
-20 -930 4657 0
-20 -931 4658 0
-20 -932 4659 0
-5 -2329 4661 0
-5 -2330 4662 0
-5 -2331 4663 0
-5 -2332 4664 0
-6 -2329 4662 0
-6 -2330 4663 0
-6 -2331 4664 0
-6 -2332 4661 0
-7 -2329 4663 0
-7 -2330 4664 0
-7 -2331 4661 0
-7 -2332 4662 0
-8 -2329 4664 0
-8 -2330 4661 0
-8 -2331 4662 0
-8 -2332 4663 0
-9 -1553 4665 0
-9 -1554 4666 0
-9 -1555 4667 0
-9 -1556 4668 0
-10 -1553 4666 0
-10 -1554 4667 0
-10 -1555 4668 0
-10 -1556 4665 0
-11 -1553 4667 0
-11 -1554 4668 0
-11 -1555 4665 0
-11 -1556 4666 0
-12 -1553 4668 0
-12 -1554 4665 0
-12 -1555 4666 0
-12 -1556 4667 0
-5 -2333 4669 0
-5 -2334 4670 0
-5 -2335 4671 0
-5 -2336 4672 0
-6 -2333 4670 0
-6 -2334 4671 0
-6 -2335 4672 0
-6 -2336 4669 0
-7 -2333 4671 0
-7 -2334 4672 0
-7 -2335 4669 0
-7 -2336 4670 0
-8 -2333 4672 0
-8 -2334 4669 0
-8 -2335 4670 0
-8 -2336 4671 0
-25 -665 4673 0
-25 -666 4674 0
-25 -667 4675 0
-25 -668 4676 0
-26 -665 4674 0
-26 -666 4675 0
-26 -667 4676 0
-26 -668 4673 0
-27 -665 4675 0
-27 -666 4676 0
-27 -667 4673 0
-27 -668 4674 0
-28 -665 4676 0
-28 -666 4673 0
-28 -667 4674 0
-28 -668 4675 0
-5 -2337 4677 0
-5 -2338 4678 0
-5 -2339 4679 0
-5 -2340 4680 0
-6 -2337 4678 0
-6 -2338 4679 0
-6 -2339 4680 0
-6 -2340 4677 0
-7 -2337 4679 0
-7 -2338 4680 0
-7 -2339 4677 0
-7 -2340 4678 0
-8 -2337 4680 0
-8 -2338 4677 0
-8 -2339 4678 0
-8 -2340 4679 0
4681 4682 4683 4684 0
-4681 -4682 0
-4681 -4683 0
-4681 -4684 0
-4682 -4683 0
-4682 -4684 0
-4683 -4684 0
-5 -2341 4685 0
-5 -2342 4686 0
-5 -2343 4687 0
-5 -2344 4688 0
-6 -2341 4686 0
-6 -2342 4687 0
-6 -2343 4688 0
-6 -2344 4685 0
-7 -2341 4687 0
-7 -2342 4688 0
-7 -2343 4685 0
-7 -2344 4686 0
-8 -2341 4688 0
-8 -2342 4685 0
-8 -2343 4686 0
-8 -2344 4687 0
-9 -1561 4689 0
-9 -1562 4690 0
-9 -1563 4691 0
-9 -1564 4692 0
-10 -1561 4690 0
-10 -1562 4691 0
-10 -1563 4692 0
-10 -1564 4689 0
-11 -1561 4691 0
-11 -1562 4692 0
-11 -1563 4689 0
-11 -1564 4690 0
-12 -1561 4692 0
-12 -1562 4689 0
-12 -1563 4690 0
-12 -1564 4691 0
-5 -2345 4693 0
-5 -2346 4694 0
-5 -2347 4695 0
-5 -2348 4696 0
-6 -2345 4694 0
-6 -2346 4695 0
-6 -2347 4696 0
-6 -2348 4693 0
-7 -2345 4695 0
-7 -2346 4696 0
-7 -2347 4693 0
-7 -2348 4694 0
-8 -2345 4696 0
-8 -2346 4693 0
-8 -2347 4694 0
-8 -2348 4695 0
-17 -937 4697 0
-17 -938 4698 0
-17 -939 4699 0
-17 -940 4700 0
-18 -937 4698 0
-18 -938 4699 0
-18 -939 4700 0
-18 -940 4697 0
-19 -937 4699 0
-19 -938 4700 0
-19 -939 4697 0
-19 -940 4698 0
-20 -937 4700 0
-20 -938 4697 0
-20 -939 4698 0
-20 -940 4699 0
-5 -2349 4701 0
-5 -2350 4702 0
-5 -2351 4703 0
-5 -2352 4704 0
-6 -2349 4702 0
-6 -2350 4703 0
-6 -2351 4704 0
-6 -2352 4701 0
-7 -2349 4703 0
-7 -2350 4704 0
-7 -2351 4701 0
-7 -2352 4702 0
-8 -2349 4704 0
-8 -2350 4701 0
-8 -2351 4702 0
-8 -2352 4703 0
-41 -425 4705 0
-41 -426 4706 0
-41 -427 4707 0
-41 -428 4708 0
-42 -425 4706 0
-42 -426 4707 0
-42 -427 4708 0
-42 -428 4705 0
-43 -425 4707 0
-43 -426 4708 0
-43 -427 4705 0
-43 -428 4706 0
-44 -425 4708 0
-44 -426 4705 0
-44 -427 4706 0
-44 -428 4707 0
-5 -2353 4709 0
-5 -2354 4710 0
-5 -2355 4711 0
-5 -2356 4712 0
-6 -2353 4710 0
-6 -2354 4711 0
-6 -2355 4712 0
-6 -2356 4709 0
-7 -2353 4711 0
-7 -2354 4712 0
-7 -2355 4709 0
-7 -2356 4710 0
-8 -2353 4712 0
-8 -2354 4709 0
-8 -2355 4710 0
-8 -2356 4711 0
-9 -1569 4713 0
-9 -1570 4714 0
-9 -1571 4715 0
-9 -1572 4716 0
-10 -1569 4714 0
-10 -1570 4715 0
-10 -1571 4716 0
-10 -1572 4713 0
-11 -1569 4715 0
-11 -1570 4716 0
-11 -1571 4713 0
-11 -1572 4714 0
-12 -1569 4716 0
-12 -1570 4713 0
-12 -1571 4714 0
-12 -1572 4715 0
-5 -2357 4717 0
-5 -2358 4718 0
-5 -2359 4719 0
-5 -2360 4720 0
-6 -2357 4718 0
-6 -2358 4719 0
-6 -2359 4720 0
-6 -2360 4717 0
-7 -2357 4719 0
-7 -2358 4720 0
-7 -2359 4717 0
-7 -2360 4718 0
-8 -2357 4720 0
-8 -2358 4717 0
-8 -2359 4718 0
-8 -2360 4719 0
4721 4722 4723 4724 0
-4721 -4722 0
-4721 -4723 0
-4721 -4724 0
-4722 -4723 0
-4722 -4724 0
-4723 -4724 0
-5 -2361 4725 0
-5 -2362 4726 0
-5 -2363 4727 0
-5 -2364 4728 0
-6 -2361 4726 0
-6 -2362 4727 0
-6 -2363 4728 0
-6 -2364 4725 0
-7 -2361 4727 0
-7 -2362 4728 0
-7 -2363 4725 0
-7 -2364 4726 0
-8 -2361 4728 0
-8 -2362 4725 0
-8 -2363 4726 0
-8 -2364 4727 0
-25 -673 4729 0
-25 -674 4730 0
-25 -675 4731 0
-25 -676 4732 0
-26 -673 4730 0
-26 -674 4731 0
-26 -675 4732 0
-26 -676 4729 0
-27 -673 4731 0
-27 -674 4732 0
-27 -675 4729 0
-27 -676 4730 0
-28 -673 4732 0
-28 -674 4729 0
-28 -675 4730 0
-28 -676 4731 0
-5 -2365 4733 0
-5 -2366 4734 0
-5 -2367 4735 0
-5 -2368 4736 0
-6 -2365 4734 0
-6 -2366 4735 0
-6 -2367 4736 0
-6 -2368 4733 0
-7 -2365 4735 0
-7 -2366 4736 0
-7 -2367 4733 0
-7 -2368 4734 0
-8 -2365 4736 0
-8 -2366 4733 0
-8 -2367 4734 0
-8 -2368 4735 0
-9 -1577 4737 0
-9 -1578 4738 0
-9 -1579 4739 0
-9 -1580 4740 0
-10 -1577 4738 0
-10 -1578 4739 0
-10 -1579 4740 0
-10 -1580 4737 0
-11 -1577 4739 0
-11 -1578 4740 0
-11 -1579 4737 0
-11 -1580 4738 0
-12 -1577 4740 0
-12 -1578 4737 0
-12 -1579 4738 0
-12 -1580 4739 0
-5 -2369 4741 0
-5 -2370 4742 0
-5 -2371 4743 0
-5 -2372 4744 0
-6 -2369 4742 0
-6 -2370 4743 0
-6 -2371 4744 0
-6 -2372 4741 0
-7 -2369 4743 0
-7 -2370 4744 0
-7 -2371 4741 0
-7 -2372 4742 0
-8 -2369 4744 0
-8 -2370 4741 0
-8 -2371 4742 0
-8 -2372 4743 0
4745 4746 4747 4748 0
-4745 -4746 0
-4745 -4747 0
-4745 -4748 0
-4746 -4747 0
-4746 -4748 0
-4747 -4748 0
-5 -2373 4749 0
-5 -2374 4750 0
-5 -2375 4751 0
-5 -2376 4752 0
-6 -2373 4750 0
-6 -2374 4751 0
-6 -2375 4752 0
-6 -2376 4749 0
-7 -2373 4751 0
-7 -2374 4752 0
-7 -2375 4749 0
-7 -2376 4750 0
-8 -2373 4752 0
-8 -2374 4749 0
-8 -2375 4750 0
-8 -2376 4751 0
-113 -161 4753 0
-113 -162 4754 0
-113 -163 4755 0
-113 -164 4756 0
-114 -161 4754 0
-114 -162 4755 0
-114 -163 4756 0
-114 -164 4753 0
-115 -161 4755 0
-115 -162 4756 0
-115 -163 4753 0
-115 -164 4754 0
-116 -161 4756 0
-116 -162 4753 0
-116 -163 4754 0
-116 -164 4755 0
-5 -2377 4757 0
-5 -2378 4758 0
-5 -2379 4759 0
-5 -2380 4760 0
-6 -2377 4758 0
-6 -2378 4759 0
-6 -2379 4760 0
-6 -2380 4757 0
-7 -2377 4759 0
-7 -2378 4760 0
-7 -2379 4757 0
-7 -2380 4758 0
-8 -2377 4760 0
-8 -2378 4757 0
-8 -2379 4758 0
-8 -2380 4759 0
-9 -1585 4761 0
-9 -1586 4762 0
-9 -1587 4763 0
-9 -1588 4764 0
-10 -1585 4762 0
-10 -1586 4763 0
-10 -1587 4764 0
-10 -1588 4761 0
-11 -1585 4763 0
-11 -1586 4764 0
-11 -1587 4761 0
-11 -1588 4762 0
-12 -1585 4764 0
-12 -1586 4761 0
-12 -1587 4762 0
-12 -1588 4763 0
-5 -2381 4765 0
-5 -2382 4766 0
-5 -2383 4767 0
-5 -2384 4768 0
-6 -2381 4766 0
-6 -2382 4767 0
-6 -2383 4768 0
-6 -2384 4765 0
-7 -2381 4767 0
-7 -2382 4768 0
-7 -2383 4765 0
-7 -2384 4766 0
-8 -2381 4768 0
-8 -2382 4765 0
-8 -2383 4766 0
-8 -2384 4767 0
4769 4770 4771 4772 0
-4769 -4770 0
-4769 -4771 0
-4769 -4772 0
-4770 -4771 0
-4770 -4772 0
-4771 -4772 0
-5 -2385 4773 0
-5 -2386 4774 0
-5 -2387 4775 0
-5 -2388 4776 0
-6 -2385 4774 0
-6 -2386 4775 0
-6 -2387 4776 0
-6 -2388 4773 0
-7 -2385 4775 0
-7 -2386 4776 0
-7 -2387 4773 0
-7 -2388 4774 0
-8 -2385 4776 0
-8 -2386 4773 0
-8 -2387 4774 0
-8 -2388 4775 0
-17 -953 4777 0
-17 -954 4778 0
-17 -955 4779 0
-17 -956 4780 0
-18 -953 4778 0
-18 -954 4779 0
-18 -955 4780 0
-18 -956 4777 0
-19 -953 4779 0
-19 -954 4780 0
-19 -955 4777 0
-19 -956 4778 0
-20 -953 4780 0
-20 -954 4777 0
-20 -955 4778 0
-20 -956 4779 0
-5 -2389 4781 0
-5 -2390 4782 0
-5 -2391 4783 0
-5 -2392 4784 0
-6 -2389 4782 0
-6 -2390 4783 0
-6 -2391 4784 0
-6 -2392 4781 0
-7 -2389 4783 0
-7 -2390 4784 0
-7 -2391 4781 0
-7 -2392 4782 0
-8 -2389 4784 0
-8 -2390 4781 0
-8 -2391 4782 0
-8 -2392 4783 0
-9 -1593 4785 0
-9 -1594 4786 0
-9 -1595 4787 0
-9 -1596 4788 0
-10 -1593 4786 0
-10 -1594 4787 0
-10 -1595 4788 0
-10 -1596 4785 0
-11 -1593 4787 0
-11 -1594 4788 0
-11 -1595 4785 0
-11 -1596 4786 0
-12 -1593 4788 0
-12 -1594 4785 0
-12 -1595 4786 0
-12 -1596 4787 0
-5 -2393 4789 0
-5 -2394 4790 0
-5 -2395 4791 0
-5 -2396 4792 0
-6 -2393 4790 0
-6 -2394 4791 0
-6 -2395 4792 0
-6 -2396 4789 0
-7 -2393 4791 0
-7 -2394 4792 0
-7 -2395 4789 0
-7 -2396 4790 0
-8 -2393 4792 0
-8 -2394 4789 0
-8 -2395 4790 0
-8 -2396 4791 0
-41 -433 4793 0
-41 -434 4794 0
-41 -435 4795 0
-41 -436 4796 0
-42 -433 4794 0
-42 -434 4795 0
-42 -435 4796 0
-42 -436 4793 0
-43 -433 4795 0
-43 -434 4796 0
-43 -435 4793 0
-43 -436 4794 0
-44 -433 4796 0
-44 -434 4793 0
-44 -435 4794 0
-44 -436 4795 0
-5 -2397 4797 0
-5 -2398 4798 0
-5 -2399 4799 0
-5 -2400 4800 0
-6 -2397 4798 0
-6 -2398 4799 0
-6 -2399 4800 0
-6 -2400 4797 0
-7 -2397 4799 0
-7 -2398 4800 0
-7 -2399 4797 0
-7 -2400 4798 0
-8 -2397 4800 0
-8 -2398 4797 0
-8 -2399 4798 0
-8 -2400 4799 0
4801 4802 4803 4804 0
-4801 -4802 0
-4801 -4803 0
-4801 -4804 0
-4802 -4803 0
-4802 -4804 0
-4803 -4804 0
-5 -2401 4805 0
-5 -2402 4806 0
-5 -2403 4807 0
-5 -2404 4808 0
-6 -2401 4806 0
-6 -2402 4807 0
-6 -2403 4808 0
-6 -2404 4805 0
-7 -2401 4807 0
-7 -2402 4808 0
-7 -2403 4805 0
-7 -2404 4806 0
-8 -2401 4808 0
-8 -2402 4805 0
-8 -2403 4806 0
-8 -2404 4807 0
-9 -1601 4809 0
-9 -1602 4810 0
-9 -1603 4811 0
-9 -1604 4812 0
-10 -1601 4810 0
-10 -1602 4811 0
-10 -1603 4812 0
-10 -1604 4809 0
-11 -1601 4811 0
-11 -1602 4812 0
-11 -1603 4809 0
-11 -1604 4810 0
-12 -1601 4812 0
-12 -1602 4809 0
-12 -1603 4810 0
-12 -1604 4811 0
-5 -2405 4813 0
-5 -2406 4814 0
-5 -2407 4815 0
-5 -2408 4816 0
-6 -2405 4814 0
-6 -2406 4815 0
-6 -2407 4816 0
-6 -2408 4813 0
-7 -2405 4815 0
-7 -2406 4816 0
-7 -2407 4813 0
-7 -2408 4814 0
-8 -2405 4816 0
-8 -2406 4813 0
-8 -2407 4814 0
-8 -2408 4815 0
-17 -961 4817 0
-17 -962 4818 0
-17 -963 4819 0
-17 -964 4820 0
-18 -961 4818 0
-18 -962 4819 0
-18 -963 4820 0
-18 -964 4817 0
-19 -961 4819 0
-19 -962 4820 0
-19 -963 4817 0
-19 -964 4818 0
-20 -961 4820 0
-20 -962 4817 0
-20 -963 4818 0
-20 -964 4819 0
-5 -2409 4821 0
-5 -2410 4822 0
-5 -2411 4823 0
-5 -2412 4824 0
-6 -2409 4822 0
-6 -2410 4823 0
-6 -2411 4824 0
-6 -2412 4821 0
-7 -2409 4823 0
-7 -2410 4824 0
-7 -2411 4821 0
-7 -2412 4822 0
-8 -2409 4824 0
-8 -2410 4821 0
-8 -2411 4822 0
-8 -2412 4823 0
-65 -281 4825 0
-65 -282 4826 0
-65 -283 4827 0
-65 -284 4828 0
-66 -281 4826 0
-66 -282 4827 0
-66 -283 4828 0
-66 -284 4825 0
-67 -281 4827 0
-67 -282 4828 0
-67 -283 4825 0
-67 -284 4826 0
-68 -281 4828 0
-68 -282 4825 0
-68 -283 4826 0
-68 -284 4827 0
-5 -2413 4829 0
-5 -2414 4830 0
-5 -2415 4831 0
-5 -2416 4832 0
-6 -2413 4830 0
-6 -2414 4831 0
-6 -2415 4832 0
-6 -2416 4829 0
-7 -2413 4831 0
-7 -2414 4832 0
-7 -2415 4829 0
-7 -2416 4830 0
-8 -2413 4832 0
-8 -2414 4829 0
-8 -2415 4830 0
-8 -2416 4831 0
-9 -1609 4833 0
-9 -1610 4834 0
-9 -1611 4835 0
-9 -1612 4836 0
-10 -1609 4834 0
-10 -1610 4835 0
-10 -1611 4836 0
-10 -1612 4833 0
-11 -1609 4835 0
-11 -1610 4836 0
-11 -1611 4833 0
-11 -1612 4834 0
-12 -1609 4836 0
-12 -1610 4833 0
-12 -1611 4834 0
-12 -1612 4835 0
-5 -2417 4837 0
-5 -2418 4838 0
-5 -2419 4839 0
-5 -2420 4840 0
-6 -2417 4838 0
-6 -2418 4839 0
-6 -2419 4840 0
-6 -2420 4837 0
-7 -2417 4839 0
-7 -2418 4840 0
-7 -2419 4837 0
-7 -2420 4838 0
-8 -2417 4840 0
-8 -2418 4837 0
-8 -2419 4838 0
-8 -2420 4839 0
-25 -689 4841 0
-25 -690 4842 0
-25 -691 4843 0
-25 -692 4844 0
-26 -689 4842 0
-26 -690 4843 0
-26 -691 4844 0
-26 -692 4841 0
-27 -689 4843 0
-27 -690 4844 0
-27 -691 4841 0
-27 -692 4842 0
-28 -689 4844 0
-28 -690 4841 0
-28 -691 4842 0
-28 -692 4843 0
-5 -2421 4845 0
-5 -2422 4846 0
-5 -2423 4847 0
-5 -2424 4848 0
-6 -2421 4846 0
-6 -2422 4847 0
-6 -2423 4848 0
-6 -2424 4845 0
-7 -2421 4847 0
-7 -2422 4848 0
-7 -2423 4845 0
-7 -2424 4846 0
-8 -2421 4848 0
-8 -2422 4845 0
-8 -2423 4846 0
-8 -2424 4847 0
4849 4850 4851 4852 0
-4849 -4850 0
-4849 -4851 0
-4849 -4852 0
-4850 -4851 0
-4850 -4852 0
-4851 -4852 0
-5 -2425 4853 0
-5 -2426 4854 0
-5 -2427 4855 0
-5 -2428 4856 0
-6 -2425 4854 0
-6 -2426 4855 0
-6 -2427 4856 0
-6 -2428 4853 0
-7 -2425 4855 0
-7 -2426 4856 0
-7 -2427 4853 0
-7 -2428 4854 0
-8 -2425 4856 0
-8 -2426 4853 0
-8 -2427 4854 0
-8 -2428 4855 0
-9 -1617 4857 0
-9 -1618 4858 0
-9 -1619 4859 0
-9 -1620 4860 0
-10 -1617 4858 0
-10 -1618 4859 0
-10 -1619 4860 0
-10 -1620 4857 0
-11 -1617 4859 0
-11 -1618 4860 0
-11 -1619 4857 0
-11 -1620 4858 0
-12 -1617 4860 0
-12 -1618 4857 0
-12 -1619 4858 0
-12 -1620 4859 0
-5 -2429 4861 0
-5 -2430 4862 0
-5 -2431 4863 0
-5 -2432 4864 0
-6 -2429 4862 0
-6 -2430 4863 0
-6 -2431 4864 0
-6 -2432 4861 0
-7 -2429 4863 0
-7 -2430 4864 0
-7 -2431 4861 0
-7 -2432 4862 0
-8 -2429 4864 0
-8 -2430 4861 0
-8 -2431 4862 0
-8 -2432 4863 0
4865 4866 4867 4868 0
-4865 -4866 0
-4865 -4867 0
-4865 -4868 0
-4866 -4867 0
-4866 -4868 0
-4867 -4868 0
-5 -2433 4869 0
-5 -2434 4870 0
-5 -2435 4871 0
-5 -2436 4872 0
-6 -2433 4870 0
-6 -2434 4871 0
-6 -2435 4872 0
-6 -2436 4869 0
-7 -2433 4871 0
-7 -2434 4872 0
-7 -2435 4869 0
-7 -2436 4870 0
-8 -2433 4872 0
-8 -2434 4869 0
-8 -2435 4870 0
-8 -2436 4871 0
-89 -209 4873 0
-89 -210 4874 0
-89 -211 4875 0
-89 -212 4876 0
-90 -209 4874 0
-90 -210 4875 0
-90 -211 4876 0
-90 -212 4873 0
-91 -209 4875 0
-91 -210 4876 0
-91 -211 4873 0
-91 -212 4874 0
-92 -209 4876 0
-92 -210 4873 0
-92 -211 4874 0
-92 -212 4875 0
-5 -2437 4877 0
-5 -2438 4878 0
-5 -2439 4879 0
-5 -2440 4880 0
-6 -2437 4878 0
-6 -2438 4879 0
-6 -2439 4880 0
-6 -2440 4877 0
-7 -2437 4879 0
-7 -2438 4880 0
-7 -2439 4877 0
-7 -2440 4878 0
-8 -2437 4880 0
-8 -2438 4877 0
-8 -2439 4878 0
-8 -2440 4879 0
-9 -1625 4881 0
-9 -1626 4882 0
-9 -1627 4883 0
-9 -1628 4884 0
-10 -1625 4882 0
-10 -1626 4883 0
-10 -1627 4884 0
-10 -1628 4881 0
-11 -1625 4883 0
-11 -1626 4884 0
-11 -1627 4881 0
-11 -1628 4882 0
-12 -1625 4884 0
-12 -1626 4881 0
-12 -1627 4882 0
-12 -1628 4883 0
-5 -2441 4885 0
-5 -2442 4886 0
-5 -2443 4887 0
-5 -2444 4888 0
-6 -2441 4886 0
-6 -2442 4887 0
-6 -2443 4888 0
-6 -2444 4885 0
-7 -2441 4887 0
-7 -2442 4888 0
-7 -2443 4885 0
-7 -2444 4886 0
-8 -2441 4888 0
-8 -2442 4885 0
-8 -2443 4886 0
-8 -2444 4887 0
4889 4890 4891 4892 0
-4889 -4890 0
-4889 -4891 0
-4889 -4892 0
-4890 -4891 0
-4890 -4892 0
-4891 -4892 0
-5 -2445 4893 0
-5 -2446 4894 0
-5 -2447 4895 0
-5 -2448 4896 0
-6 -2445 4894 0
-6 -2446 4895 0
-6 -2447 4896 0
-6 -2448 4893 0
-7 -2445 4895 0
-7 -2446 4896 0
-7 -2447 4893 0
-7 -2448 4894 0
-8 -2445 4896 0
-8 -2446 4893 0
-8 -2447 4894 0
-8 -2448 4895 0
-17 -977 4897 0
-17 -978 4898 0
-17 -979 4899 0
-17 -980 4900 0
-18 -977 4898 0
-18 -978 4899 0
-18 -979 4900 0
-18 -980 4897 0
-19 -977 4899 0
-19 -978 4900 0
-19 -979 4897 0
-19 -980 4898 0
-20 -977 4900 0
-20 -978 4897 0
-20 -979 4898 0
-20 -980 4899 0
-8 0
-1 -5 0
-5 -9 0
-9 -13 0
-13 -17 0
-17 -21 0
-21 -25 0
-25 -29 0
-29 -33 0
-33 -37 0
-37 -41 0
-41 -45 0
-45 -49 0
-49 -53 0
-53 -57 0
-57 -61 0
-61 -65 0
-65 -69 0
-69 -73 0
-73 -77 0
-77 -81 0
-81 -85 0
-85 -89 0
-89 -93 0
-93 -97 0
-97 -101 0
-101 -105 0
-105 -109 0
-109 -113 0
-113 -117 0
-117 -121 0
-121 -125 0
-125 -129 0
-129 -133 0
-133 -137 0
-137 -141 0
-141 -145 0
-145 -149 0
-149 -153 0
-153 -157 0
-157 -161 0
-161 -165 0
-165 -169 0
-169 -173 0
-173 -177 0
-177 -181 0
-181 -185 0
-185 -189 0
-189 -193 0
-193 -197 0
-197 -201 0
-201 -205 0
-205 -209 0
-209 -213 0
-213 -217 0
-217 -221 0
-221 -225 0
-225 -229 0
-229 -233 0
-233 -237 0
-237 -241 0
-241 -245 0
-245 -249 0
-249 -253 0
-253 -257 0
-257 -261 0
-261 -265 0
-265 -269 0
-269 -273 0
-273 -277 0
-277 -281 0
-281 -285 0
-285 -289 0
-289 -293 0
-293 -297 0
-297 -301 0
-301 -305 0
-305 -309 0
-309 -313 0
-313 -317 0
-317 -321 0
-321 -325 0
-325 -329 0
-329 -333 0
-333 -337 0
-337 -341 0
-341 -345 0
-345 -349 0
-349 -353 0
-353 -357 0
-357 -361 0
-361 -365 0
-365 -369 0
-369 -373 0
-373 -377 0
-377 -381 0
-381 -385 0
-385 -389 0
-389 -393 0
-393 -397 0
-397 -401 0
-401 -405 0
-405 -409 0
-409 -413 0
-413 -417 0
-417 -421 0
-421 -425 0
-425 -429 0
-429 -433 0
-433 -437 0
-437 -441 0
-441 -445 0
-445 -449 0
-449 -453 0
-453 -457 0
-457 -461 0
-461 -465 0
-465 -469 0
-469 -473 0
-473 -477 0
-477 -481 0
-481 -485 0
-485 -489 0
-489 -493 0
-493 -497 0
-497 -501 0
-501 -505 0
-505 -509 0
-509 -513 0
-513 -517 0
-517 -521 0
-521 -525 0
-525 -529 0
-529 -533 0
-533 -537 0
-537 -541 0
-541 -545 0
-545 -549 0
-549 -553 0
-553 -557 0
-557 -561 0
-561 -565 0
-565 -569 0
-569 -573 0
-573 -577 0
-577 -581 0
-581 -585 0
-585 -589 0
-589 -593 0
-593 -597 0
-597 -601 0
-601 -605 0
-605 -609 0
-609 -613 0
-613 -617 0
-617 -621 0
-621 -625 0
-625 -629 0
-629 -633 0
-633 -637 0
-637 -641 0
-641 -645 0
-645 -649 0
-649 -653 0
-653 -657 0
-657 -661 0
-661 -665 0
-665 -669 0
-669 -673 0
-673 -677 0
-677 -681 0
-681 -685 0
-685 -689 0
-689 -693 0
-693 -697 0
-697 -701 0
-701 -705 0
-705 -709 0
-709 -713 0
-713 -717 0
-717 -721 0
-721 -725 0
-725 -729 0
-729 -733 0
-733 -737 0
-737 -741 0
-741 -745 0
-745 -749 0
-749 -753 0
-753 -757 0
-757 -761 0
-761 -765 0
-765 -769 0
-769 -773 0
-773 -777 0
-777 -781 0
-781 -785 0
-785 -789 0
-789 -793 0
-793 -797 0
-797 -801 0
-801 -805 0
-805 -809 0
-809 -813 0
-813 -817 0
-817 -821 0
-821 -825 0
-825 -829 0
-829 -833 0
-833 -837 0
-837 -841 0
-841 -845 0
-845 -849 0
-849 -853 0
-853 -857 0
-857 -861 0
-861 -865 0
-865 -869 0
-869 -873 0
-873 -877 0
-877 -881 0
-881 -885 0
-885 -889 0
-889 -893 0
-893 -897 0
-897 -901 0
-901 -905 0
-905 -909 0
-909 -913 0
-913 -917 0
-917 -921 0
-921 -925 0
-925 -929 0
-929 -933 0
-933 -937 0
-937 -941 0
-941 -945 0
-945 -949 0
-949 -953 0
-953 -957 0
-957 -961 0
-961 -965 0
-965 -969 0
-969 -973 0
-973 -977 0
-977 -981 0
-981 -985 0
-985 -989 0
-989 -993 0
-993 -997 0
-997 -1001 0
-1001 -1005 0
-1005 -1009 0
-1009 -1013 0
-1013 -1017 0
-1017 -1021 0
-1021 -1025 0
-1025 -1029 0
-1029 -1033 0
-1033 -1037 0
-1037 -1041 0
-1041 -1045 0
-1045 -1049 0
-1049 -1053 0
-1053 -1057 0
-1057 -1061 0
-1061 -1065 0
-1065 -1069 0
-1069 -1073 0
-1073 -1077 0
-1077 -1081 0
-1081 -1085 0
-1085 -1089 0
-1089 -1093 0
-1093 -1097 0
-1097 -1101 0
-1101 -1105 0
-1105 -1109 0
-1109 -1113 0
-1113 -1117 0
-1117 -1121 0
-1121 -1125 0
-1125 -1129 0
-1129 -1133 0
-1133 -1137 0
-1137 -1141 0
-1141 -1145 0
-1145 -1149 0
-1149 -1153 0
-1153 -1157 0
-1157 -1161 0
-1161 -1165 0
-1165 -1169 0
-1169 -1173 0
-1173 -1177 0
-1177 -1181 0
-1181 -1185 0
-1185 -1189 0
-1189 -1193 0
-1193 -1197 0
-1197 -1201 0
-1201 -1205 0
-1205 -1209 0
-1209 -1213 0
-1213 -1217 0
-1217 -1221 0
-1221 -1225 0
-1225 -1229 0
-1229 -1233 0
-1233 -1237 0
-1237 -1241 0
-1241 -1245 0
-1245 -1249 0
-1249 -1253 0
-1253 -1257 0
-1257 -1261 0
-1261 -1265 0
-1265 -1269 0
-1269 -1273 0
-1273 -1277 0
-1277 -1281 0
-1281 -1285 0
-1285 -1289 0
-1289 -1293 0
-1293 -1297 0
-1297 -1301 0
-1301 -1305 0
-1305 -1309 0
-1309 -1313 0
-1313 -1317 0
-1317 -1321 0
-1321 -1325 0
-1325 -1329 0
-1329 -1333 0
-1333 -1337 0
-1337 -1341 0
-1341 -1345 0
-1345 -1349 0
-1349 -1353 0
-1353 -1357 0
-1357 -1361 0
-1361 -1365 0
-1365 -1369 0
-1369 -1373 0
-1373 -1377 0
-1377 -1381 0
-1381 -1385 0
-1385 -1389 0
-1389 -1393 0
-1393 -1397 0
-1397 -1401 0
-1401 -1405 0
-1405 -1409 0
-1409 -1413 0
-1413 -1417 0
-1417 -1421 0
-1421 -1425 0
-1425 -1429 0
-1429 -1433 0
-1433 -1437 0
-1437 -1441 0
-1441 -1445 0
-1445 -1449 0
-1449 -1453 0
-1453 -1457 0
-1457 -1461 0
-1461 -1465 0
-1465 -1469 0
-1469 -1473 0
-1473 -1477 0
-1477 -1481 0
-1481 -1485 0
-1485 -1489 0
-1489 -1493 0
-1493 -1497 0
-1497 -1501 0
-1501 -1505 0
-1505 -1509 0
-1509 -1513 0
-1513 -1517 0
-1517 -1521 0
-1521 -1525 0
-1525 -1529 0
-1529 -1533 0
-1533 -1537 0
-1537 -1541 0
-1541 -1545 0
-1545 -1549 0
-1549 -1553 0
-1553 -1557 0
-1557 -1561 0
-1561 -1565 0
-1565 -1569 0
-1569 -1573 0
-1573 -1577 0
-1577 -1581 0
-1581 -1585 0
-1585 -1589 0
-1589 -1593 0
-1593 -1597 0
-1597 -1601 0
-1601 -1605 0
-1605 -1609 0
-1609 -1613 0
-1613 -1617 0
-1617 -1621 0
-1621 -1625 0
-1625 -1629 0
-1629 -1633 0
-1633 -1637 0
-1637 -1641 0
-1641 -1645 0
-1645 -1649 0
-1649 -1653 0
-1653 -1657 0
-1657 -1661 0
-1661 -1665 0
-1665 -1669 0
-1669 -1673 0
-1673 -1677 0
-1677 -1681 0
-1681 -1685 0
-1685 -1689 0
-1689 -1693 0
-1693 -1697 0
-1697 -1701 0
-1701 -1705 0
-1705 -1709 0
-1709 -1713 0
-1713 -1717 0
-1717 -1721 0
-1721 -1725 0
-1725 -1729 0
-1729 -1733 0
-1733 -1737 0
-1737 -1741 0
-1741 -1745 0
-1745 -1749 0
-1749 -1753 0
-1753 -1757 0
-1757 -1761 0
-1761 -1765 0
-1765 -1769 0
-1769 -1773 0
-1773 -1777 0
-1777 -1781 0
-1781 -1785 0
-1785 -1789 0
-1789 -1793 0
-1793 -1797 0
-1797 -1801 0
-1801 -1805 0
-1805 -1809 0
-1809 -1813 0
-1813 -1817 0
-1817 -1821 0
-1821 -1825 0
-1825 -1829 0
-1829 -1833 0
-1833 -1837 0
-1837 -1841 0
-1841 -1845 0
-1845 -1849 0
-1849 -1853 0
-1853 -1857 0
-1857 -1861 0
-1861 -1865 0
-1865 -1869 0
-1869 -1873 0
-1873 -1877 0
-1877 -1881 0
-1881 -1885 0
-1885 -1889 0
-1889 -1893 0
-1893 -1897 0
-1897 -1901 0
-1901 -1905 0
-1905 -1909 0
-1909 -1913 0
-1913 -1917 0
-1917 -1921 0
-1921 -1925 0
-1925 -1929 0
-1929 -1933 0
-1933 -1937 0
-1937 -1941 0
-1941 -1945 0
-1945 -1949 0
-1949 -1953 0
-1953 -1957 0
-1957 -1961 0
-1961 -1965 0
-1965 -1969 0
-1969 -1973 0
-1973 -1977 0
-1977 -1981 0
-1981 -1985 0
-1985 -1989 0
-1989 -1993 0
-1993 -1997 0
-1997 -2001 0
-2001 -2005 0
-2005 -2009 0
-2009 -2013 0
-2013 -2017 0
-2017 -2021 0
-2021 -2025 0
-2025 -2029 0
-2029 -2033 0
-2033 -2037 0
-2037 -2041 0
-2041 -2045 0
-2045 -2049 0
-2049 -2053 0
-2053 -2057 0
-2057 -2061 0
-2061 -2065 0
-2065 -2069 0
-2069 -2073 0
-2073 -2077 0
-2077 -2081 0
-2081 -2085 0
-2085 -2089 0
-2089 -2093 0
-2093 -2097 0
-2097 -2101 0
-2101 -2105 0
-2105 -2109 0
-2109 -2113 0
-2113 -2117 0
-2117 -2121 0
-2121 -2125 0
-2125 -2129 0
-2129 -2133 0
-2133 -2137 0
-2137 -2141 0
-2141 -2145 0
-2145 -2149 0
-2149 -2153 0
-2153 -2157 0
-2157 -2161 0
-2161 -2165 0
-2165 -2169 0
-2169 -2173 0
-2173 -2177 0
-2177 -2181 0
-2181 -2185 0
-2185 -2189 0
-2189 -2193 0
-2193 -2197 0
-2197 -2201 0
-2201 -2205 0
-2205 -2209 0
-2209 -2213 0
-2213 -2217 0
-2217 -2221 0
-2221 -2225 0
-2225 -2229 0
-2229 -2233 0
-2233 -2237 0
-2237 -2241 0
-2241 -2245 0
-2245 -2249 0
-2249 -2253 0
-2253 -2257 0
-2257 -2261 0
-2261 -2265 0
-2265 -2269 0
-2269 -2273 0
-2273 -2277 0
-2277 -2281 0
-2281 -2285 0
-2285 -2289 0
-2289 -2293 0
-2293 -2297 0
-2297 -2301 0
-2301 -2305 0
-2305 -2309 0
-2309 -2313 0
-2313 -2317 0
-2317 -2321 0
-2321 -2325 0
-2325 -2329 0
-2329 -2333 0
-2333 -2337 0
-2337 -2341 0
-2341 -2345 0
-2345 -2349 0
-2349 -2353 0
-2353 -2357 0
-2357 -2361 0
-2361 -2365 0
-2365 -2369 0
-2369 -2373 0
-2373 -2377 0
-2377 -2381 0
-2381 -2385 0
-2385 -2389 0
-2389 -2393 0
-2393 -2397 0
-2397 -2401 0
-2401 -2405 0
-2405 -2409 0
-2409 -2413 0
-2413 -2417 0
-2417 -2421 0
-2421 -2425 0
-2425 -2429 0
-2429 -2433 0
-2433 -2437 0
-2437 -2441 0
-2441 -2445 0
-2445 -2449 0
-2449 -2453 0
-2453 -2457 0
-2457 -2461 0
-2461 -2465 0
-2465 -2469 0
-2469 -2473 0
-2473 -2477 0
-2477 -2481 0
-2481 -2485 0
-2485 -2489 0
-2489 -2493 0
-2493 -2497 0
-2497 -2501 0
-2501 -2505 0
-2505 -2509 0
-2509 -2513 0
-2513 -2517 0
-2517 -2521 0
-2521 -2525 0
-2525 -2529 0
-2529 -2533 0
-2533 -2537 0
-2537 -2541 0
-2541 -2545 0
-2545 -2549 0
-2549 -2553 0
-2553 -2557 0
-2557 -2561 0
-2561 -2565 0
-2565 -2569 0
-2569 -2573 0
-2573 -2577 0
-2577 -2581 0
-2581 -2585 0
-2585 -2589 0
-2589 -2593 0
-2593 -2597 0
-2597 -2601 0
-2601 -2605 0
-2605 -2609 0
-2609 -2613 0
-2613 -2617 0
-2617 -2621 0
-2621 -2625 0
-2625 -2629 0
-2629 -2633 0
-2633 -2637 0
-2637 -2641 0
-2641 -2645 0
-2645 -2649 0
-2649 -2653 0
-2653 -2657 0
-2657 -2661 0
-2661 -2665 0
-2665 -2669 0
-2669 -2673 0
-2673 -2677 0
-2677 -2681 0
-2681 -2685 0
-2685 -2689 0
-2689 -2693 0
-2693 -2697 0
-2697 -2701 0
-2701 -2705 0
-2705 -2709 0
-2709 -2713 0
-2713 -2717 0
-2717 -2721 0
-2721 -2725 0
-2725 -2729 0
-2729 -2733 0
-2733 -2737 0
-2737 -2741 0
-2741 -2745 0
-2745 -2749 0
-2749 -2753 0
-2753 -2757 0
-2757 -2761 0
-2761 -2765 0
-2765 -2769 0
-2769 -2773 0
-2773 -2777 0
-2777 -2781 0
-2781 -2785 0
-2785 -2789 0
-2789 -2793 0
-2793 -2797 0
-2797 -2801 0
-2801 -2805 0
-2805 -2809 0
-2809 -2813 0
-2813 -2817 0
-2817 -2821 0
-2821 -2825 0
-2825 -2829 0
-2829 -2833 0
-2833 -2837 0
-2837 -2841 0
-2841 -2845 0
-2845 -2849 0
-2849 -2853 0
-2853 -2857 0
-2857 -2861 0
-2861 -2865 0
-2865 -2869 0
-2869 -2873 0
-2873 -2877 0
-2877 -2881 0
-2881 -2885 0
-2885 -2889 0
-2889 -2893 0
-2893 -2897 0
-2897 -2901 0
-2901 -2905 0
-2905 -2909 0
-2909 -2913 0
-2913 -2917 0
-2917 -2921 0
-2921 -2925 0
-2925 -2929 0
-2929 -2933 0
-2933 -2937 0
-2937 -2941 0
-2941 -2945 0
-2945 -2949 0
-2949 -2953 0
-2953 -2957 0
-2957 -2961 0
-2961 -2965 0
-2965 -2969 0
-2969 -2973 0
-2973 -2977 0
-2977 -2981 0
-2981 -2985 0
-2985 -2989 0
-2989 -2993 0
-2993 -2997 0
-2997 -3001 0
-3001 -3005 0
-3005 -3009 0
-3009 -3013 0
-3013 -3017 0
-3017 -3021 0
-3021 -3025 0
-3025 -3029 0
-3029 -3033 0
-3033 -3037 0
-3037 -3041 0
-3041 -3045 0
-3045 -3049 0
-3049 -3053 0
-3053 -3057 0
-3057 -3061 0
-3061 -3065 0
-3065 -3069 0
-3069 -3073 0
-3073 -3077 0
-3077 -3081 0
-3081 -3085 0
-3085 -3089 0
-3089 -3093 0
-3093 -3097 0
-3097 -3101 0
-3101 -3105 0
-3105 -3109 0
-3109 -3113 0
-3113 -3117 0
-3117 -3121 0
-3121 -3125 0
-3125 -3129 0
-3129 -3133 0
-3133 -3137 0
-3137 -3141 0
-3141 -3145 0
-3145 -3149 0
-3149 -3153 0
-3153 -3157 0
-3157 -3161 0
-3161 -3165 0
-3165 -3169 0
-3169 -3173 0
-3173 -3177 0
-3177 -3181 0
-3181 -3185 0
-3185 -3189 0
-3189 -3193 0
-3193 -3197 0
-3197 -3201 0
-3201 -3205 0
-3205 -3209 0
-3209 -3213 0
-3213 -3217 0
-3217 -3221 0
-3221 -3225 0
-3225 -3229 0
-3229 -3233 0
-3233 -3237 0
-3237 -3241 0
-3241 -3245 0
-3245 -3249 0
-3249 -3253 0
-3253 -3257 0
-3257 -3261 0
-3261 -3265 0
-3265 -3269 0
-3269 -3273 0
-3273 -3277 0
-3277 -3281 0
-3281 -3285 0
-3285 -3289 0
-3289 -3293 0
-3293 -3297 0
-3297 -3301 0
-3301 -3305 0
-3305 -3309 0
-3309 -3313 0
-3313 -3317 0
-3317 -3321 0
-3321 -3325 0
-3325 -3329 0
-3329 -3333 0
-3333 -3337 0
-3337 -3341 0
-3341 -3345 0
-3345 -3349 0
-3349 -3353 0
-3353 -3357 0
-3357 -3361 0
-3361 -3365 0
-3365 -3369 0
-3369 -3373 0
-3373 -3377 0
-3377 -3381 0
-3381 -3385 0
-3385 -3389 0
-3389 -3393 0
-3393 -3397 0
-3397 -3401 0
-3401 -3405 0
-3405 -3409 0
-3409 -3413 0
-3413 -3417 0
-3417 -3421 0
-3421 -3425 0
-3425 -3429 0
-3429 -3433 0
-3433 -3437 0
-3437 -3441 0
-3441 -3445 0
-3445 -3449 0
-3449 -3453 0
-3453 -3457 0
-3457 -3461 0
-3461 -3465 0
-3465 -3469 0
-3469 -3473 0
-3473 -3477 0
-3477 -3481 0
-3481 -3485 0
-3485 -3489 0
-3489 -3493 0
-3493 -3497 0
-3497 -3501 0
-3501 -3505 0
-3505 -3509 0
-3509 -3513 0
-3513 -3517 0
-3517 -3521 0
-3521 -3525 0
-3525 -3529 0
-3529 -3533 0
-3533 -3537 0
-3537 -3541 0
-3541 -3545 0
-3545 -3549 0
-3549 -3553 0
-3553 -3557 0
-3557 -3561 0
-3561 -3565 0
-3565 -3569 0
-3569 -3573 0
-3573 -3577 0
-3577 -3581 0
-3581 -3585 0
-3585 -3589 0
-3589 -3593 0
-3593 -3597 0
-3597 -3601 0
-3601 -3605 0
-3605 -3609 0
-3609 -3613 0
-3613 -3617 0
-3617 -3621 0
-3621 -3625 0
-3625 -3629 0
-3629 -3633 0
-3633 -3637 0
-3637 -3641 0
-3641 -3645 0
-3645 -3649 0
-3649 -3653 0
-3653 -3657 0
-3657 -3661 0
-3661 -3665 0
-3665 -3669 0
-3669 -3673 0
-3673 -3677 0
-3677 -3681 0
-3681 -3685 0
-3685 -3689 0
-3689 -3693 0
-3693 -3697 0
-3697 -3701 0
-3701 -3705 0
-3705 -3709 0
-3709 -3713 0
-3713 -3717 0
-3717 -3721 0
-3721 -3725 0
-3725 -3729 0
-3729 -3733 0
-3733 -3737 0
-3737 -3741 0
-3741 -3745 0
-3745 -3749 0
-3749 -3753 0
-3753 -3757 0
-3757 -3761 0
-3761 -3765 0
-3765 -3769 0
-3769 -3773 0
-3773 -3777 0
-3777 -3781 0
-3781 -3785 0
-3785 -3789 0
-3789 -3793 0
-3793 -3797 0
-3797 -3801 0
-3801 -3805 0
-3805 -3809 0
-3809 -3813 0
-3813 -3817 0
-3817 -3821 0
-3821 -3825 0
-3825 -3829 0
-3829 -3833 0
-3833 -3837 0
-3837 -3841 0
-3841 -3845 0
-3845 -3849 0
-3849 -3853 0
-3853 -3857 0
-3857 -3861 0
-3861 -3865 0
-3865 -3869 0
-3869 -3873 0
-3873 -3877 0
-3877 -3881 0
-3881 -3885 0
-3885 -3889 0
-3889 -3893 0
-3893 -3897 0
-3897 -3901 0
-3901 -3905 0
-3905 -3909 0
-3909 -3913 0
-3913 -3917 0
-3917 -3921 0
-3921 -3925 0
-3925 -3929 0
-3929 -3933 0
-3933 -3937 0
-3937 -3941 0
-3941 -3945 0
-3945 -3949 0
-3949 -3953 0
-3953 -3957 0
-3957 -3961 0
-3961 -3965 0
-3965 -3969 0
-3969 -3973 0
-3973 -3977 0
-3977 -3981 0
-3981 -3985 0
-3985 -3989 0
-3989 -3993 0
-3993 -3997 0
-3997 -4001 0
-4001 -4005 0
-4005 -4009 0
-4009 -4013 0
-4013 -4017 0
-4017 -4021 0
-4021 -4025 0
-4025 -4029 0
-4029 -4033 0
-4033 -4037 0
-4037 -4041 0
-4041 -4045 0
-4045 -4049 0
-4049 -4053 0
-4053 -4057 0
-4057 -4061 0
-4061 -4065 0
-4065 -4069 0
-4069 -4073 0
-4073 -4077 0
-4077 -4081 0
-4081 -4085 0
-4085 -4089 0
-4089 -4093 0
-4093 -4097 0
-4097 -4101 0
-4101 -4105 0
-4105 -4109 0
-4109 -4113 0
-4113 -4117 0
-4117 -4121 0
-4121 -4125 0
-4125 -4129 0
-4129 -4133 0
-4133 -4137 0
-4137 -4141 0
-4141 -4145 0
-4145 -4149 0
-4149 -4153 0
-4153 -4157 0
-4157 -4161 0
-4161 -4165 0
-4165 -4169 0
-4169 -4173 0
-4173 -4177 0
-4177 -4181 0
-4181 -4185 0
-4185 -4189 0
-4189 -4193 0
-4193 -4197 0
-4197 -4201 0
-4201 -4205 0
-4205 -4209 0
-4209 -4213 0
-4213 -4217 0
-4217 -4221 0
-4221 -4225 0
-4225 -4229 0
-4229 -4233 0
-4233 -4237 0
-4237 -4241 0
-4241 -4245 0
-4245 -4249 0
-4249 -4253 0
-4253 -4257 0
-4257 -4261 0
-4261 -4265 0
-4265 -4269 0
-4269 -4273 0
-4273 -4277 0
-4277 -4281 0
-4281 -4285 0
-4285 -4289 0
-4289 -4293 0
-4293 -4297 0
-4297 -4301 0
-4301 -4305 0
-4305 -4309 0
-4309 -4313 0
-4313 -4317 0
-4317 -4321 0
-4321 -4325 0
-4325 -4329 0
-4329 -4333 0
-4333 -4337 0
-4337 -4341 0
-4341 -4345 0
-4345 -4349 0
-4349 -4353 0
-4353 -4357 0
-4357 -4361 0
-4361 -4365 0
-4365 -4369 0
-4369 -4373 0
-4373 -4377 0
-4377 -4381 0
-4381 -4385 0
-4385 -4389 0
-4389 -4393 0
-4393 -4397 0
-4397 -4401 0
-4401 -4405 0
-4405 -4409 0
-4409 -4413 0
-4413 -4417 0
-4417 -4421 0
-4421 -4425 0
-4425 -4429 0
-4429 -4433 0
-4433 -4437 0
-4437 -4441 0
-4441 -4445 0
-4445 -4449 0
-4449 -4453 0
-4453 -4457 0
-4457 -4461 0
-4461 -4465 0
-4465 -4469 0
-4469 -4473 0
-4473 -4477 0
-4477 -4481 0
-4481 -4485 0
-4485 -4489 0
-4489 -4493 0
-4493 -4497 0
-4497 -4501 0
-4501 -4505 0
-4505 -4509 0
-4509 -4513 0
-4513 -4517 0
-4517 -4521 0
-4521 -4525 0
-4525 -4529 0
-4529 -4533 0
-4533 -4537 0
-4537 -4541 0
-4541 -4545 0
-4545 -4549 0
-4549 -4553 0
-4553 -4557 0
-4557 -4561 0
-4561 -4565 0
-4565 -4569 0
-4569 -4573 0
-4573 -4577 0
-4577 -4581 0
-4581 -4585 0
-4585 -4589 0
-4589 -4593 0
-4593 -4597 0
-4597 -4601 0
-4601 -4605 0
-4605 -4609 0
-4609 -4613 0
-4613 -4617 0
-4617 -4621 0
-4621 -4625 0
-4625 -4629 0
-4629 -4633 0
-4633 -4637 0
-4637 -4641 0
-4641 -4645 0
-4645 -4649 0
-4649 -4653 0
-4653 -4657 0
-4657 -4661 0
-4661 -4665 0
-4665 -4669 0
-4669 -4673 0
-4673 -4677 0
-4677 -4681 0
-4681 -4685 0
-4685 -4689 0
-4689 -4693 0
-4693 -4697 0
-4697 -4701 0
-4701 -4705 0
-4705 -4709 0
-4709 -4713 0
-4713 -4717 0
-4717 -4721 0
-4721 -4725 0
-4725 -4729 0
-4729 -4733 0
-4733 -4737 0
-4737 -4741 0
-4741 -4745 0
-4745 -4749 0
-4749 -4753 0
-4753 -4757 0
-4757 -4761 0
-4761 -4765 0
-4765 -4769 0
-4769 -4773 0
-4773 -4777 0
-4777 -4781 0
-4781 -4785 0
-4785 -4789 0
-4789 -4793 0
-4793 -4797 0
-4797 -4801 0
-4801 -4805 0
-4805 -4809 0
-4809 -4813 0
-4813 -4817 0
-4817 -4821 0
-4821 -4825 0
-4825 -4829 0
-4829 -4833 0
-4833 -4837 0
-4837 -4841 0
-4841 -4845 0
-4845 -4849 0
-4849 -4853 0
-4853 -4857 0
-4857 -4861 0
-4861 -4865 0
-4865 -4869 0
-4869 -4873 0
-4873 -4877 0
-4877 -4881 0
-4881 -4885 0
-4885 -4889 0
-4889 -4893 0
-4893 -4897 0
