c finite Owings instance n=16 k=4
p cnf 16 140
2 3 4 5 6 7 8 0
-2 -3 -4 -5 -6 -7 -8 0
2 3 4 5 6 7 8 10 0
-2 -3 -4 -5 -6 -7 -8 -10 0
2 3 4 5 6 7 8 9 12 0
-2 -3 -4 -5 -6 -7 -8 -9 -12 0
2 3 4 5 6 8 9 10 14 0
-2 -3 -4 -5 -6 -8 -9 -10 -14 0
2 3 4 5 6 9 10 11 16 0
-2 -3 -4 -5 -6 -9 -10 -11 -16 0
2 3 4 5 6 7 8 9 10 0
-2 -3 -4 -5 -6 -7 -8 -9 -10 0
2 3 4 5 6 7 8 10 12 0
-2 -3 -4 -5 -6 -7 -8 -10 -12 0
2 3 4 5 6 8 9 11 14 0
-2 -3 -4 -5 -6 -8 -9 -11 -14 0
2 3 4 5 6 8 9 10 12 16 0
-2 -3 -4 -5 -6 -8 -9 -10 -12 -16 0
2 3 4 6 7 8 10 11 12 0
-2 -3 -4 -6 -7 -8 -10 -11 -12 0
2 3 4 6 7 8 9 10 12 14 0
-2 -3 -4 -6 -7 -8 -9 -10 -12 -14 0
2 3 4 6 7 9 10 13 16 0
-2 -3 -4 -6 -7 -9 -10 -13 -16 0
2 3 4 7 8 9 12 13 14 0
-2 -3 -4 -7 -8 -9 -12 -13 -14 0
2 3 4 7 8 9 10 12 14 16 0
-2 -3 -4 -7 -8 -9 -10 -12 -14 -16 0
2 3 4 8 9 10 14 15 16 0
-2 -3 -4 -8 -9 -10 -14 -15 -16 0
2 4 5 6 7 8 9 10 0
-2 -4 -5 -6 -7 -8 -9 -10 0
2 4 5 6 7 8 9 10 12 0
-2 -4 -5 -6 -7 -8 -9 -10 -12 0
2 4 5 6 7 8 10 11 14 0
-2 -4 -5 -6 -7 -8 -10 -11 -14 0
2 4 5 6 7 8 9 11 12 16 0
-2 -4 -5 -6 -7 -8 -9 -11 -12 -16 0
2 4 6 7 8 9 10 11 12 0
-2 -4 -6 -7 -8 -9 -10 -11 -12 0
2 4 6 8 10 12 14 0
-2 -4 -6 -8 -10 -12 -14 0
2 4 6 8 9 10 11 13 16 0
-2 -4 -6 -8 -9 -10 -11 -13 -16 0
2 4 6 7 8 9 10 12 13 14 0
-2 -4 -6 -7 -8 -9 -10 -12 -13 -14 0
2 4 6 7 9 11 12 14 16 0
-2 -4 -6 -7 -9 -11 -12 -14 -16 0
2 4 6 8 9 10 11 14 15 16 0
-2 -4 -6 -8 -9 -10 -11 -14 -15 -16 0
2 5 6 7 8 9 10 11 12 0
-2 -5 -6 -7 -8 -9 -10 -11 -12 0
2 5 6 8 9 10 11 12 14 0
-2 -5 -6 -8 -9 -10 -11 -12 -14 0
2 5 6 8 9 10 12 13 16 0
-2 -5 -6 -8 -9 -10 -12 -13 -16 0
2 5 7 8 10 11 12 13 14 0
-2 -5 -7 -8 -10 -11 -12 -13 -14 0
2 5 7 8 9 10 12 14 16 0
-2 -5 -7 -8 -9 -10 -12 -14 -16 0
2 5 8 9 11 12 14 15 16 0
-2 -5 -8 -9 -11 -12 -14 -15 -16 0
2 6 7 8 10 11 12 13 14 0
-2 -6 -7 -8 -10 -11 -12 -13 -14 0
2 6 7 9 10 11 12 13 14 16 0
-2 -6 -7 -9 -10 -11 -12 -13 -14 -16 0
2 6 8 9 10 12 13 14 15 16 0
-2 -6 -8 -9 -10 -12 -13 -14 -15 -16 0
2 7 8 9 12 13 14 15 16 0
-2 -7 -8 -9 -12 -13 -14 -15 -16 0
4 5 6 7 8 9 10 0
-4 -5 -6 -7 -8 -9 -10 0
4 5 6 7 8 9 10 12 0
-4 -5 -6 -7 -8 -9 -10 -12 0
4 5 6 7 8 9 10 11 14 0
-4 -5 -6 -7 -8 -9 -10 -11 -14 0
4 5 6 7 8 10 11 12 16 0
-4 -5 -6 -7 -8 -10 -11 -12 -16 0
4 5 6 7 8 9 10 11 12 0
-4 -5 -6 -7 -8 -9 -10 -11 -12 0
4 5 6 7 8 9 10 12 14 0
-4 -5 -6 -7 -8 -9 -10 -12 -14 0
4 5 6 7 8 10 11 13 16 0
-4 -5 -6 -7 -8 -10 -11 -13 -16 0
4 5 6 8 9 10 12 13 14 0
-4 -5 -6 -8 -9 -10 -12 -13 -14 0
4 5 6 8 9 10 11 12 14 16 0
-4 -5 -6 -8 -9 -10 -11 -12 -14 -16 0
4 5 6 9 10 11 14 15 16 0
-4 -5 -6 -9 -10 -11 -14 -15 -16 0
4 6 7 8 9 10 11 12 0
-4 -6 -7 -8 -9 -10 -11 -12 0
4 6 7 8 9 10 11 12 14 0
-4 -6 -7 -8 -9 -10 -11 -12 -14 0
4 6 7 8 9 10 12 13 16 0
-4 -6 -7 -8 -9 -10 -12 -13 -16 0
4 6 8 9 10 11 12 13 14 0
-4 -6 -8 -9 -10 -11 -12 -13 -14 0
4 6 8 10 12 14 16 0
-4 -6 -8 -10 -12 -14 -16 0
4 6 8 9 10 11 12 14 15 16 0
-4 -6 -8 -9 -10 -11 -12 -14 -15 -16 0
4 7 8 9 10 11 12 13 14 0
-4 -7 -8 -9 -10 -11 -12 -13 -14 0
4 7 8 10 11 12 13 14 16 0
-4 -7 -8 -10 -11 -12 -13 -14 -16 0
4 7 9 10 12 13 14 15 16 0
-4 -7 -9 -10 -12 -13 -14 -15 -16 0
4 8 9 10 12 13 14 15 16 0
-4 -8 -9 -10 -12 -13 -14 -15 -16 0
6 7 8 9 10 11 12 0
-6 -7 -8 -9 -10 -11 -12 0
6 7 8 9 10 11 12 14 0
-6 -7 -8 -9 -10 -11 -12 -14 0
6 7 8 9 10 11 12 13 16 0
-6 -7 -8 -9 -10 -11 -12 -13 -16 0
6 7 8 9 10 11 12 13 14 0
-6 -7 -8 -9 -10 -11 -12 -13 -14 0
6 7 8 9 10 11 12 14 16 0
-6 -7 -8 -9 -10 -11 -12 -14 -16 0
6 7 8 10 11 12 14 15 16 0
-6 -7 -8 -10 -11 -12 -14 -15 -16 0
6 8 9 10 11 12 13 14 0
-6 -8 -9 -10 -11 -12 -13 -14 0
6 8 9 10 11 12 13 14 16 0
-6 -8 -9 -10 -11 -12 -13 -14 -16 0
6 8 10 11 12 13 14 15 16 0
-6 -8 -10 -11 -12 -13 -14 -15 -16 0
6 9 10 11 12 13 14 15 16 0
-6 -9 -10 -11 -12 -13 -14 -15 -16 0
8 9 10 11 12 13 14 0
-8 -9 -10 -11 -12 -13 -14 0
8 9 10 11 12 13 14 16 0
-8 -9 -10 -11 -12 -13 -14 -16 0
8 9 10 11 12 13 14 15 16 0
-8 -9 -10 -11 -12 -13 -14 -15 -16 0
8 10 11 12 13 14 15 16 0
-8 -10 -11 -12 -13 -14 -15 -16 0
10 11 12 13 14 15 16 0
-10 -11 -12 -13 -14 -15 -16 0
