c finite Owings instance n=24 k=3
p cnf 24 440
2 3 4 5 6 0
-2 -3 -4 -5 -6 0
2 3 4 5 6 8 0
-2 -3 -4 -5 -6 -8 0
2 3 4 6 7 10 0
-2 -3 -4 -6 -7 -10 0
2 3 4 7 8 12 0
-2 -3 -4 -7 -8 -12 0
2 3 4 8 9 14 0
-2 -3 -4 -8 -9 -14 0
2 3 4 9 10 16 0
-2 -3 -4 -9 -10 -16 0
2 3 4 10 11 18 0
-2 -3 -4 -10 -11 -18 0
2 3 4 11 12 20 0
-2 -3 -4 -11 -12 -20 0
2 3 4 12 13 22 0
-2 -3 -4 -12 -13 -22 0
2 3 4 13 14 24 0
-2 -3 -4 -13 -14 -24 0
2 4 5 6 7 8 0
-2 -4 -5 -6 -7 -8 0
2 4 6 8 10 0
-2 -4 -6 -8 -10 0
2 4 6 7 9 12 0
-2 -4 -6 -7 -9 -12 0
2 4 6 8 10 14 0
-2 -4 -6 -8 -10 -14 0
2 4 6 9 11 16 0
-2 -4 -6 -9 -11 -16 0
2 4 6 10 12 18 0
-2 -4 -6 -10 -12 -18 0
2 4 6 11 13 20 0
-2 -4 -6 -11 -13 -20 0
2 4 6 12 14 22 0
-2 -4 -6 -12 -14 -22 0
2 4 6 13 15 24 0
-2 -4 -6 -13 -15 -24 0
2 5 6 8 9 10 0
-2 -5 -6 -8 -9 -10 0
2 5 7 8 10 12 0
-2 -5 -7 -8 -10 -12 0
2 5 8 11 14 0
-2 -5 -8 -11 -14 0
2 5 8 9 12 16 0
-2 -5 -8 -9 -12 -16 0
2 5 8 10 13 18 0
-2 -5 -8 -10 -13 -18 0
2 5 8 11 14 20 0
-2 -5 -8 -11 -14 -20 0
2 5 8 12 15 22 0
-2 -5 -8 -12 -15 -22 0
2 5 8 13 16 24 0
-2 -5 -8 -13 -16 -24 0
2 6 7 10 11 12 0
-2 -6 -7 -10 -11 -12 0
2 6 8 10 12 14 0
-2 -6 -8 -10 -12 -14 0
2 6 9 10 13 16 0
-2 -6 -9 -10 -13 -16 0
2 6 10 14 18 0
-2 -6 -10 -14 -18 0
2 6 10 11 15 20 0
-2 -6 -10 -11 -15 -20 0
2 6 10 12 16 22 0
-2 -6 -10 -12 -16 -22 0
2 6 10 13 17 24 0
-2 -6 -10 -13 -17 -24 0
2 7 8 12 13 14 0
-2 -7 -8 -12 -13 -14 0
2 7 9 12 14 16 0
-2 -7 -9 -12 -14 -16 0
2 7 10 12 15 18 0
-2 -7 -10 -12 -15 -18 0
2 7 11 12 16 20 0
-2 -7 -11 -12 -16 -20 0
2 7 12 17 22 0
-2 -7 -12 -17 -22 0
2 7 12 13 18 24 0
-2 -7 -12 -13 -18 -24 0
2 8 9 14 15 16 0
-2 -8 -9 -14 -15 -16 0
2 8 10 14 16 18 0
-2 -8 -10 -14 -16 -18 0
2 8 11 14 17 20 0
-2 -8 -11 -14 -17 -20 0
2 8 12 14 18 22 0
-2 -8 -12 -14 -18 -22 0
2 8 13 14 19 24 0
-2 -8 -13 -14 -19 -24 0
2 9 10 16 17 18 0
-2 -9 -10 -16 -17 -18 0
2 9 11 16 18 20 0
-2 -9 -11 -16 -18 -20 0
2 9 12 16 19 22 0
-2 -9 -12 -16 -19 -22 0
2 9 13 16 20 24 0
-2 -9 -13 -16 -20 -24 0
2 10 11 18 19 20 0
-2 -10 -11 -18 -19 -20 0
2 10 12 18 20 22 0
-2 -10 -12 -18 -20 -22 0
2 10 13 18 21 24 0
-2 -10 -13 -18 -21 -24 0
2 11 12 20 21 22 0
-2 -11 -12 -20 -21 -22 0
2 11 13 20 22 24 0
-2 -11 -13 -20 -22 -24 0
2 12 13 22 23 24 0
-2 -12 -13 -22 -23 -24 0
4 5 6 7 8 0
-4 -5 -6 -7 -8 0
4 5 6 7 8 10 0
-4 -5 -6 -7 -8 -10 0
4 5 6 8 9 12 0
-4 -5 -6 -8 -9 -12 0
4 5 6 9 10 14 0
-4 -5 -6 -9 -10 -14 0
4 5 6 10 11 16 0
-4 -5 -6 -10 -11 -16 0
4 5 6 11 12 18 0
-4 -5 -6 -11 -12 -18 0
4 5 6 12 13 20 0
-4 -5 -6 -12 -13 -20 0
4 5 6 13 14 22 0
-4 -5 -6 -13 -14 -22 0
4 5 6 14 15 24 0
-4 -5 -6 -14 -15 -24 0
4 6 7 8 9 10 0
-4 -6 -7 -8 -9 -10 0
4 6 8 10 12 0
-4 -6 -8 -10 -12 0
4 6 8 9 11 14 0
-4 -6 -8 -9 -11 -14 0
4 6 8 10 12 16 0
-4 -6 -8 -10 -12 -16 0
4 6 8 11 13 18 0
-4 -6 -8 -11 -13 -18 0
4 6 8 12 14 20 0
-4 -6 -8 -12 -14 -20 0
4 6 8 13 15 22 0
-4 -6 -8 -13 -15 -22 0
4 6 8 14 16 24 0
-4 -6 -8 -14 -16 -24 0
4 7 8 10 11 12 0
-4 -7 -8 -10 -11 -12 0
4 7 9 10 12 14 0
-4 -7 -9 -10 -12 -14 0
4 7 10 13 16 0
-4 -7 -10 -13 -16 0
4 7 10 11 14 18 0
-4 -7 -10 -11 -14 -18 0
4 7 10 12 15 20 0
-4 -7 -10 -12 -15 -20 0
4 7 10 13 16 22 0
-4 -7 -10 -13 -16 -22 0
4 7 10 14 17 24 0
-4 -7 -10 -14 -17 -24 0
4 8 9 12 13 14 0
-4 -8 -9 -12 -13 -14 0
4 8 10 12 14 16 0
-4 -8 -10 -12 -14 -16 0
4 8 11 12 15 18 0
-4 -8 -11 -12 -15 -18 0
4 8 12 16 20 0
-4 -8 -12 -16 -20 0
4 8 12 13 17 22 0
-4 -8 -12 -13 -17 -22 0
4 8 12 14 18 24 0
-4 -8 -12 -14 -18 -24 0
4 9 10 14 15 16 0
-4 -9 -10 -14 -15 -16 0
4 9 11 14 16 18 0
-4 -9 -11 -14 -16 -18 0
4 9 12 14 17 20 0
-4 -9 -12 -14 -17 -20 0
4 9 13 14 18 22 0
-4 -9 -13 -14 -18 -22 0
4 9 14 19 24 0
-4 -9 -14 -19 -24 0
4 10 11 16 17 18 0
-4 -10 -11 -16 -17 -18 0
4 10 12 16 18 20 0
-4 -10 -12 -16 -18 -20 0
4 10 13 16 19 22 0
-4 -10 -13 -16 -19 -22 0
4 10 14 16 20 24 0
-4 -10 -14 -16 -20 -24 0
4 11 12 18 19 20 0
-4 -11 -12 -18 -19 -20 0
4 11 13 18 20 22 0
-4 -11 -13 -18 -20 -22 0
4 11 14 18 21 24 0
-4 -11 -14 -18 -21 -24 0
4 12 13 20 21 22 0
-4 -12 -13 -20 -21 -22 0
4 12 14 20 22 24 0
-4 -12 -14 -20 -22 -24 0
4 13 14 22 23 24 0
-4 -13 -14 -22 -23 -24 0
6 7 8 9 10 0
-6 -7 -8 -9 -10 0
6 7 8 9 10 12 0
-6 -7 -8 -9 -10 -12 0
6 7 8 10 11 14 0
-6 -7 -8 -10 -11 -14 0
6 7 8 11 12 16 0
-6 -7 -8 -11 -12 -16 0
6 7 8 12 13 18 0
-6 -7 -8 -12 -13 -18 0
6 7 8 13 14 20 0
-6 -7 -8 -13 -14 -20 0
6 7 8 14 15 22 0
-6 -7 -8 -14 -15 -22 0
6 7 8 15 16 24 0
-6 -7 -8 -15 -16 -24 0
6 8 9 10 11 12 0
-6 -8 -9 -10 -11 -12 0
6 8 10 12 14 0
-6 -8 -10 -12 -14 0
6 8 10 11 13 16 0
-6 -8 -10 -11 -13 -16 0
6 8 10 12 14 18 0
-6 -8 -10 -12 -14 -18 0
6 8 10 13 15 20 0
-6 -8 -10 -13 -15 -20 0
6 8 10 14 16 22 0
-6 -8 -10 -14 -16 -22 0
6 8 10 15 17 24 0
-6 -8 -10 -15 -17 -24 0
6 9 10 12 13 14 0
-6 -9 -10 -12 -13 -14 0
6 9 11 12 14 16 0
-6 -9 -11 -12 -14 -16 0
6 9 12 15 18 0
-6 -9 -12 -15 -18 0
6 9 12 13 16 20 0
-6 -9 -12 -13 -16 -20 0
6 9 12 14 17 22 0
-6 -9 -12 -14 -17 -22 0
6 9 12 15 18 24 0
-6 -9 -12 -15 -18 -24 0
6 10 11 14 15 16 0
-6 -10 -11 -14 -15 -16 0
6 10 12 14 16 18 0
-6 -10 -12 -14 -16 -18 0
6 10 13 14 17 20 0
-6 -10 -13 -14 -17 -20 0
6 10 14 18 22 0
-6 -10 -14 -18 -22 0
6 10 14 15 19 24 0
-6 -10 -14 -15 -19 -24 0
6 11 12 16 17 18 0
-6 -11 -12 -16 -17 -18 0
6 11 13 16 18 20 0
-6 -11 -13 -16 -18 -20 0
6 11 14 16 19 22 0
-6 -11 -14 -16 -19 -22 0
6 11 15 16 20 24 0
-6 -11 -15 -16 -20 -24 0
6 12 13 18 19 20 0
-6 -12 -13 -18 -19 -20 0
6 12 14 18 20 22 0
-6 -12 -14 -18 -20 -22 0
6 12 15 18 21 24 0
-6 -12 -15 -18 -21 -24 0
6 13 14 20 21 22 0
-6 -13 -14 -20 -21 -22 0
6 13 15 20 22 24 0
-6 -13 -15 -20 -22 -24 0
6 14 15 22 23 24 0
-6 -14 -15 -22 -23 -24 0
8 9 10 11 12 0
-8 -9 -10 -11 -12 0
8 9 10 11 12 14 0
-8 -9 -10 -11 -12 -14 0
8 9 10 12 13 16 0
-8 -9 -10 -12 -13 -16 0
8 9 10 13 14 18 0
-8 -9 -10 -13 -14 -18 0
8 9 10 14 15 20 0
-8 -9 -10 -14 -15 -20 0
8 9 10 15 16 22 0
-8 -9 -10 -15 -16 -22 0
8 9 10 16 17 24 0
-8 -9 -10 -16 -17 -24 0
8 10 11 12 13 14 0
-8 -10 -11 -12 -13 -14 0
8 10 12 14 16 0
-8 -10 -12 -14 -16 0
8 10 12 13 15 18 0
-8 -10 -12 -13 -15 -18 0
8 10 12 14 16 20 0
-8 -10 -12 -14 -16 -20 0
8 10 12 15 17 22 0
-8 -10 -12 -15 -17 -22 0
8 10 12 16 18 24 0
-8 -10 -12 -16 -18 -24 0
8 11 12 14 15 16 0
-8 -11 -12 -14 -15 -16 0
8 11 13 14 16 18 0
-8 -11 -13 -14 -16 -18 0
8 11 14 17 20 0
-8 -11 -14 -17 -20 0
8 11 14 15 18 22 0
-8 -11 -14 -15 -18 -22 0
8 11 14 16 19 24 0
-8 -11 -14 -16 -19 -24 0
8 12 13 16 17 18 0
-8 -12 -13 -16 -17 -18 0
8 12 14 16 18 20 0
-8 -12 -14 -16 -18 -20 0
8 12 15 16 19 22 0
-8 -12 -15 -16 -19 -22 0
8 12 16 20 24 0
-8 -12 -16 -20 -24 0
8 13 14 18 19 20 0
-8 -13 -14 -18 -19 -20 0
8 13 15 18 20 22 0
-8 -13 -15 -18 -20 -22 0
8 13 16 18 21 24 0
-8 -13 -16 -18 -21 -24 0
8 14 15 20 21 22 0
-8 -14 -15 -20 -21 -22 0
8 14 16 20 22 24 0
-8 -14 -16 -20 -22 -24 0
8 15 16 22 23 24 0
-8 -15 -16 -22 -23 -24 0
10 11 12 13 14 0
-10 -11 -12 -13 -14 0
10 11 12 13 14 16 0
-10 -11 -12 -13 -14 -16 0
10 11 12 14 15 18 0
-10 -11 -12 -14 -15 -18 0
10 11 12 15 16 20 0
-10 -11 -12 -15 -16 -20 0
10 11 12 16 17 22 0
-10 -11 -12 -16 -17 -22 0
10 11 12 17 18 24 0
-10 -11 -12 -17 -18 -24 0
10 12 13 14 15 16 0
-10 -12 -13 -14 -15 -16 0
10 12 14 16 18 0
-10 -12 -14 -16 -18 0
10 12 14 15 17 20 0
-10 -12 -14 -15 -17 -20 0
10 12 14 16 18 22 0
-10 -12 -14 -16 -18 -22 0
10 12 14 17 19 24 0
-10 -12 -14 -17 -19 -24 0
10 13 14 16 17 18 0
-10 -13 -14 -16 -17 -18 0
10 13 15 16 18 20 0
-10 -13 -15 -16 -18 -20 0
10 13 16 19 22 0
-10 -13 -16 -19 -22 0
10 13 16 17 20 24 0
-10 -13 -16 -17 -20 -24 0
10 14 15 18 19 20 0
-10 -14 -15 -18 -19 -20 0
10 14 16 18 20 22 0
-10 -14 -16 -18 -20 -22 0
10 14 17 18 21 24 0
-10 -14 -17 -18 -21 -24 0
10 15 16 20 21 22 0
-10 -15 -16 -20 -21 -22 0
10 15 17 20 22 24 0
-10 -15 -17 -20 -22 -24 0
10 16 17 22 23 24 0
-10 -16 -17 -22 -23 -24 0
12 13 14 15 16 0
-12 -13 -14 -15 -16 0
12 13 14 15 16 18 0
-12 -13 -14 -15 -16 -18 0
12 13 14 16 17 20 0
-12 -13 -14 -16 -17 -20 0
12 13 14 17 18 22 0
-12 -13 -14 -17 -18 -22 0
12 13 14 18 19 24 0
-12 -13 -14 -18 -19 -24 0
12 14 15 16 17 18 0
-12 -14 -15 -16 -17 -18 0
12 14 16 18 20 0
-12 -14 -16 -18 -20 0
12 14 16 17 19 22 0
-12 -14 -16 -17 -19 -22 0
12 14 16 18 20 24 0
-12 -14 -16 -18 -20 -24 0
12 15 16 18 19 20 0
-12 -15 -16 -18 -19 -20 0
12 15 17 18 20 22 0
-12 -15 -17 -18 -20 -22 0
12 15 18 21 24 0
-12 -15 -18 -21 -24 0
12 16 17 20 21 22 0
-12 -16 -17 -20 -21 -22 0
12 16 18 20 22 24 0
-12 -16 -18 -20 -22 -24 0
12 17 18 22 23 24 0
-12 -17 -18 -22 -23 -24 0
14 15 16 17 18 0
-14 -15 -16 -17 -18 0
14 15 16 17 18 20 0
-14 -15 -16 -17 -18 -20 0
14 15 16 18 19 22 0
-14 -15 -16 -18 -19 -22 0
14 15 16 19 20 24 0
-14 -15 -16 -19 -20 -24 0
14 16 17 18 19 20 0
-14 -16 -17 -18 -19 -20 0
14 16 18 20 22 0
-14 -16 -18 -20 -22 0
14 16 18 19 21 24 0
-14 -16 -18 -19 -21 -24 0
14 17 18 20 21 22 0
-14 -17 -18 -20 -21 -22 0
14 17 19 20 22 24 0
-14 -17 -19 -20 -22 -24 0
14 18 19 22 23 24 0
-14 -18 -19 -22 -23 -24 0
16 17 18 19 20 0
-16 -17 -18 -19 -20 0
16 17 18 19 20 22 0
-16 -17 -18 -19 -20 -22 0
16 17 18 20 21 24 0
-16 -17 -18 -20 -21 -24 0
16 18 19 20 21 22 0
-16 -18 -19 -20 -21 -22 0
16 18 20 22 24 0
-16 -18 -20 -22 -24 0
16 19 20 22 23 24 0
-16 -19 -20 -22 -23 -24 0
18 19 20 21 22 0
-18 -19 -20 -21 -22 0
18 19 20 21 22 24 0
-18 -19 -20 -21 -22 -24 0
18 20 21 22 23 24 0
-18 -20 -21 -22 -23 -24 0
20 21 22 23 24 0
-20 -21 -22 -23 -24 0
