c finite Owings instance n=12 k=3
p cnf 12 40
2 3 4 5 6 0
-2 -3 -4 -5 -6 0
2 3 4 5 6 8 0
-2 -3 -4 -5 -6 -8 0
2 3 4 6 7 10 0
-2 -3 -4 -6 -7 -10 0
2 3 4 7 8 12 0
-2 -3 -4 -7 -8 -12 0
2 4 5 6 7 8 0
-2 -4 -5 -6 -7 -8 0
2 4 6 8 10 0
-2 -4 -6 -8 -10 0
2 4 6 7 9 12 0
-2 -4 -6 -7 -9 -12 0
2 5 6 8 9 10 0
-2 -5 -6 -8 -9 -10 0
2 5 7 8 10 12 0
-2 -5 -7 -8 -10 -12 0
2 6 7 10 11 12 0
-2 -6 -7 -10 -11 -12 0
4 5 6 7 8 0
-4 -5 -6 -7 -8 0
4 5 6 7 8 10 0
-4 -5 -6 -7 -8 -10 0
4 5 6 8 9 12 0
-4 -5 -6 -8 -9 -12 0
4 6 7 8 9 10 0
-4 -6 -7 -8 -9 -10 0
4 6 8 10 12 0
-4 -6 -8 -10 -12 0
4 7 8 10 11 12 0
-4 -7 -8 -10 -11 -12 0
6 7 8 9 10 0
-6 -7 -8 -9 -10 0
6 7 8 9 10 12 0
-6 -7 -8 -9 -10 -12 0
6 8 9 10 11 12 0
-6 -8 -9 -10 -11 -12 0
8 9 10 11 12 0
-8 -9 -10 -11 -12 0
