c finite Owings instance n=36 k=3
p cnf 36 1632
2 3 4 5 6 0
-2 -3 -4 -5 -6 0
2 3 4 5 6 8 0
-2 -3 -4 -5 -6 -8 0
2 3 4 6 7 10 0
-2 -3 -4 -6 -7 -10 0
2 3 4 7 8 12 0
-2 -3 -4 -7 -8 -12 0
2 3 4 8 9 14 0
-2 -3 -4 -8 -9 -14 0
2 3 4 9 10 16 0
-2 -3 -4 -9 -10 -16 0
2 3 4 10 11 18 0
-2 -3 -4 -10 -11 -18 0
2 3 4 11 12 20 0
-2 -3 -4 -11 -12 -20 0
2 3 4 12 13 22 0
-2 -3 -4 -12 -13 -22 0
2 3 4 13 14 24 0
-2 -3 -4 -13 -14 -24 0
2 3 4 14 15 26 0
-2 -3 -4 -14 -15 -26 0
2 3 4 15 16 28 0
-2 -3 -4 -15 -16 -28 0
2 3 4 16 17 30 0
-2 -3 -4 -16 -17 -30 0
2 3 4 17 18 32 0
-2 -3 -4 -17 -18 -32 0
2 3 4 18 19 34 0
-2 -3 -4 -18 -19 -34 0
2 3 4 19 20 36 0
-2 -3 -4 -19 -20 -36 0
2 4 5 6 7 8 0
-2 -4 -5 -6 -7 -8 0
2 4 6 8 10 0
-2 -4 -6 -8 -10 0
2 4 6 7 9 12 0
-2 -4 -6 -7 -9 -12 0
2 4 6 8 10 14 0
-2 -4 -6 -8 -10 -14 0
2 4 6 9 11 16 0
-2 -4 -6 -9 -11 -16 0
2 4 6 10 12 18 0
-2 -4 -6 -10 -12 -18 0
2 4 6 11 13 20 0
-2 -4 -6 -11 -13 -20 0
2 4 6 12 14 22 0
-2 -4 -6 -12 -14 -22 0
2 4 6 13 15 24 0
-2 -4 -6 -13 -15 -24 0
2 4 6 14 16 26 0
-2 -4 -6 -14 -16 -26 0
2 4 6 15 17 28 0
-2 -4 -6 -15 -17 -28 0
2 4 6 16 18 30 0
-2 -4 -6 -16 -18 -30 0
2 4 6 17 19 32 0
-2 -4 -6 -17 -19 -32 0
2 4 6 18 20 34 0
-2 -4 -6 -18 -20 -34 0
2 4 6 19 21 36 0
-2 -4 -6 -19 -21 -36 0
2 5 6 8 9 10 0
-2 -5 -6 -8 -9 -10 0
2 5 7 8 10 12 0
-2 -5 -7 -8 -10 -12 0
2 5 8 11 14 0
-2 -5 -8 -11 -14 0
2 5 8 9 12 16 0
-2 -5 -8 -9 -12 -16 0
2 5 8 10 13 18 0
-2 -5 -8 -10 -13 -18 0
2 5 8 11 14 20 0
-2 -5 -8 -11 -14 -20 0
2 5 8 12 15 22 0
-2 -5 -8 -12 -15 -22 0
2 5 8 13 16 24 0
-2 -5 -8 -13 -16 -24 0
2 5 8 14 17 26 0
-2 -5 -8 -14 -17 -26 0
2 5 8 15 18 28 0
-2 -5 -8 -15 -18 -28 0
2 5 8 16 19 30 0
-2 -5 -8 -16 -19 -30 0
2 5 8 17 20 32 0
-2 -5 -8 -17 -20 -32 0
2 5 8 18 21 34 0
-2 -5 -8 -18 -21 -34 0
2 5 8 19 22 36 0
-2 -5 -8 -19 -22 -36 0
2 6 7 10 11 12 0
-2 -6 -7 -10 -11 -12 0
2 6 8 10 12 14 0
-2 -6 -8 -10 -12 -14 0
2 6 9 10 13 16 0
-2 -6 -9 -10 -13 -16 0
2 6 10 14 18 0
-2 -6 -10 -14 -18 0
2 6 10 11 15 20 0
-2 -6 -10 -11 -15 -20 0
2 6 10 12 16 22 0
-2 -6 -10 -12 -16 -22 0
2 6 10 13 17 24 0
-2 -6 -10 -13 -17 -24 0
2 6 10 14 18 26 0
-2 -6 -10 -14 -18 -26 0
2 6 10 15 19 28 0
-2 -6 -10 -15 -19 -28 0
2 6 10 16 20 30 0
-2 -6 -10 -16 -20 -30 0
2 6 10 17 21 32 0
-2 -6 -10 -17 -21 -32 0
2 6 10 18 22 34 0
-2 -6 -10 -18 -22 -34 0
2 6 10 19 23 36 0
-2 -6 -10 -19 -23 -36 0
2 7 8 12 13 14 0
-2 -7 -8 -12 -13 -14 0
2 7 9 12 14 16 0
-2 -7 -9 -12 -14 -16 0
2 7 10 12 15 18 0
-2 -7 -10 -12 -15 -18 0
2 7 11 12 16 20 0
-2 -7 -11 -12 -16 -20 0
2 7 12 17 22 0
-2 -7 -12 -17 -22 0
2 7 12 13 18 24 0
-2 -7 -12 -13 -18 -24 0
2 7 12 14 19 26 0
-2 -7 -12 -14 -19 -26 0
2 7 12 15 20 28 0
-2 -7 -12 -15 -20 -28 0
2 7 12 16 21 30 0
-2 -7 -12 -16 -21 -30 0
2 7 12 17 22 32 0
-2 -7 -12 -17 -22 -32 0
2 7 12 18 23 34 0
-2 -7 -12 -18 -23 -34 0
2 7 12 19 24 36 0
-2 -7 -12 -19 -24 -36 0
2 8 9 14 15 16 0
-2 -8 -9 -14 -15 -16 0
2 8 10 14 16 18 0
-2 -8 -10 -14 -16 -18 0
2 8 11 14 17 20 0
-2 -8 -11 -14 -17 -20 0
2 8 12 14 18 22 0
-2 -8 -12 -14 -18 -22 0
2 8 13 14 19 24 0
-2 -8 -13 -14 -19 -24 0
2 8 14 20 26 0
-2 -8 -14 -20 -26 0
2 8 14 15 21 28 0
-2 -8 -14 -15 -21 -28 0
2 8 14 16 22 30 0
-2 -8 -14 -16 -22 -30 0
2 8 14 17 23 32 0
-2 -8 -14 -17 -23 -32 0
2 8 14 18 24 34 0
-2 -8 -14 -18 -24 -34 0
2 8 14 19 25 36 0
-2 -8 -14 -19 -25 -36 0
2 9 10 16 17 18 0
-2 -9 -10 -16 -17 -18 0
2 9 11 16 18 20 0
-2 -9 -11 -16 -18 -20 0
2 9 12 16 19 22 0
-2 -9 -12 -16 -19 -22 0
2 9 13 16 20 24 0
-2 -9 -13 -16 -20 -24 0
2 9 14 16 21 26 0
-2 -9 -14 -16 -21 -26 0
2 9 15 16 22 28 0
-2 -9 -15 -16 -22 -28 0
2 9 16 23 30 0
-2 -9 -16 -23 -30 0
2 9 16 17 24 32 0
-2 -9 -16 -17 -24 -32 0
2 9 16 18 25 34 0
-2 -9 -16 -18 -25 -34 0
2 9 16 19 26 36 0
-2 -9 -16 -19 -26 -36 0
2 10 11 18 19 20 0
-2 -10 -11 -18 -19 -20 0
2 10 12 18 20 22 0
-2 -10 -12 -18 -20 -22 0
2 10 13 18 21 24 0
-2 -10 -13 -18 -21 -24 0
2 10 14 18 22 26 0
-2 -10 -14 -18 -22 -26 0
2 10 15 18 23 28 0
-2 -10 -15 -18 -23 -28 0
2 10 16 18 24 30 0
-2 -10 -16 -18 -24 -30 0
2 10 17 18 25 32 0
-2 -10 -17 -18 -25 -32 0
2 10 18 26 34 0
-2 -10 -18 -26 -34 0
2 10 18 19 27 36 0
-2 -10 -18 -19 -27 -36 0
2 11 12 20 21 22 0
-2 -11 -12 -20 -21 -22 0
2 11 13 20 22 24 0
-2 -11 -13 -20 -22 -24 0
2 11 14 20 23 26 0
-2 -11 -14 -20 -23 -26 0
2 11 15 20 24 28 0
-2 -11 -15 -20 -24 -28 0
2 11 16 20 25 30 0
-2 -11 -16 -20 -25 -30 0
2 11 17 20 26 32 0
-2 -11 -17 -20 -26 -32 0
2 11 18 20 27 34 0
-2 -11 -18 -20 -27 -34 0
2 11 19 20 28 36 0
-2 -11 -19 -20 -28 -36 0
2 12 13 22 23 24 0
-2 -12 -13 -22 -23 -24 0
2 12 14 22 24 26 0
-2 -12 -14 -22 -24 -26 0
2 12 15 22 25 28 0
-2 -12 -15 -22 -25 -28 0
2 12 16 22 26 30 0
-2 -12 -16 -22 -26 -30 0
2 12 17 22 27 32 0
-2 -12 -17 -22 -27 -32 0
2 12 18 22 28 34 0
-2 -12 -18 -22 -28 -34 0
2 12 19 22 29 36 0
-2 -12 -19 -22 -29 -36 0
2 13 14 24 25 26 0
-2 -13 -14 -24 -25 -26 0
2 13 15 24 26 28 0
-2 -13 -15 -24 -26 -28 0
2 13 16 24 27 30 0
-2 -13 -16 -24 -27 -30 0
2 13 17 24 28 32 0
-2 -13 -17 -24 -28 -32 0
2 13 18 24 29 34 0
-2 -13 -18 -24 -29 -34 0
2 13 19 24 30 36 0
-2 -13 -19 -24 -30 -36 0
2 14 15 26 27 28 0
-2 -14 -15 -26 -27 -28 0
2 14 16 26 28 30 0
-2 -14 -16 -26 -28 -30 0
2 14 17 26 29 32 0
-2 -14 -17 -26 -29 -32 0
2 14 18 26 30 34 0
-2 -14 -18 -26 -30 -34 0
2 14 19 26 31 36 0
-2 -14 -19 -26 -31 -36 0
2 15 16 28 29 30 0
-2 -15 -16 -28 -29 -30 0
2 15 17 28 30 32 0
-2 -15 -17 -28 -30 -32 0
2 15 18 28 31 34 0
-2 -15 -18 -28 -31 -34 0
2 15 19 28 32 36 0
-2 -15 -19 -28 -32 -36 0
2 16 17 30 31 32 0
-2 -16 -17 -30 -31 -32 0
2 16 18 30 32 34 0
-2 -16 -18 -30 -32 -34 0
2 16 19 30 33 36 0
-2 -16 -19 -30 -33 -36 0
2 17 18 32 33 34 0
-2 -17 -18 -32 -33 -34 0
2 17 19 32 34 36 0
-2 -17 -19 -32 -34 -36 0
2 18 19 34 35 36 0
-2 -18 -19 -34 -35 -36 0
4 5 6 7 8 0
-4 -5 -6 -7 -8 0
4 5 6 7 8 10 0
-4 -5 -6 -7 -8 -10 0
4 5 6 8 9 12 0
-4 -5 -6 -8 -9 -12 0
4 5 6 9 10 14 0
-4 -5 -6 -9 -10 -14 0
4 5 6 10 11 16 0
-4 -5 -6 -10 -11 -16 0
4 5 6 11 12 18 0
-4 -5 -6 -11 -12 -18 0
4 5 6 12 13 20 0
-4 -5 -6 -12 -13 -20 0
4 5 6 13 14 22 0
-4 -5 -6 -13 -14 -22 0
4 5 6 14 15 24 0
-4 -5 -6 -14 -15 -24 0
4 5 6 15 16 26 0
-4 -5 -6 -15 -16 -26 0
4 5 6 16 17 28 0
-4 -5 -6 -16 -17 -28 0
4 5 6 17 18 30 0
-4 -5 -6 -17 -18 -30 0
4 5 6 18 19 32 0
-4 -5 -6 -18 -19 -32 0
4 5 6 19 20 34 0
-4 -5 -6 -19 -20 -34 0
4 5 6 20 21 36 0
-4 -5 -6 -20 -21 -36 0
4 6 7 8 9 10 0
-4 -6 -7 -8 -9 -10 0
4 6 8 10 12 0
-4 -6 -8 -10 -12 0
4 6 8 9 11 14 0
-4 -6 -8 -9 -11 -14 0
4 6 8 10 12 16 0
-4 -6 -8 -10 -12 -16 0
4 6 8 11 13 18 0
-4 -6 -8 -11 -13 -18 0
4 6 8 12 14 20 0
-4 -6 -8 -12 -14 -20 0
4 6 8 13 15 22 0
-4 -6 -8 -13 -15 -22 0
4 6 8 14 16 24 0
-4 -6 -8 -14 -16 -24 0
4 6 8 15 17 26 0
-4 -6 -8 -15 -17 -26 0
4 6 8 16 18 28 0
-4 -6 -8 -16 -18 -28 0
4 6 8 17 19 30 0
-4 -6 -8 -17 -19 -30 0
4 6 8 18 20 32 0
-4 -6 -8 -18 -20 -32 0
4 6 8 19 21 34 0
-4 -6 -8 -19 -21 -34 0
4 6 8 20 22 36 0
-4 -6 -8 -20 -22 -36 0
4 7 8 10 11 12 0
-4 -7 -8 -10 -11 -12 0
4 7 9 10 12 14 0
-4 -7 -9 -10 -12 -14 0
4 7 10 13 16 0
-4 -7 -10 -13 -16 0
4 7 10 11 14 18 0
-4 -7 -10 -11 -14 -18 0
4 7 10 12 15 20 0
-4 -7 -10 -12 -15 -20 0
4 7 10 13 16 22 0
-4 -7 -10 -13 -16 -22 0
4 7 10 14 17 24 0
-4 -7 -10 -14 -17 -24 0
4 7 10 15 18 26 0
-4 -7 -10 -15 -18 -26 0
4 7 10 16 19 28 0
-4 -7 -10 -16 -19 -28 0
4 7 10 17 20 30 0
-4 -7 -10 -17 -20 -30 0
4 7 10 18 21 32 0
-4 -7 -10 -18 -21 -32 0
4 7 10 19 22 34 0
-4 -7 -10 -19 -22 -34 0
4 7 10 20 23 36 0
-4 -7 -10 -20 -23 -36 0
4 8 9 12 13 14 0
-4 -8 -9 -12 -13 -14 0
4 8 10 12 14 16 0
-4 -8 -10 -12 -14 -16 0
4 8 11 12 15 18 0
-4 -8 -11 -12 -15 -18 0
4 8 12 16 20 0
-4 -8 -12 -16 -20 0
4 8 12 13 17 22 0
-4 -8 -12 -13 -17 -22 0
4 8 12 14 18 24 0
-4 -8 -12 -14 -18 -24 0
4 8 12 15 19 26 0
-4 -8 -12 -15 -19 -26 0
4 8 12 16 20 28 0
-4 -8 -12 -16 -20 -28 0
4 8 12 17 21 30 0
-4 -8 -12 -17 -21 -30 0
4 8 12 18 22 32 0
-4 -8 -12 -18 -22 -32 0
4 8 12 19 23 34 0
-4 -8 -12 -19 -23 -34 0
4 8 12 20 24 36 0
-4 -8 -12 -20 -24 -36 0
4 9 10 14 15 16 0
-4 -9 -10 -14 -15 -16 0
4 9 11 14 16 18 0
-4 -9 -11 -14 -16 -18 0
4 9 12 14 17 20 0
-4 -9 -12 -14 -17 -20 0
4 9 13 14 18 22 0
-4 -9 -13 -14 -18 -22 0
4 9 14 19 24 0
-4 -9 -14 -19 -24 0
4 9 14 15 20 26 0
-4 -9 -14 -15 -20 -26 0
4 9 14 16 21 28 0
-4 -9 -14 -16 -21 -28 0
4 9 14 17 22 30 0
-4 -9 -14 -17 -22 -30 0
4 9 14 18 23 32 0
-4 -9 -14 -18 -23 -32 0
4 9 14 19 24 34 0
-4 -9 -14 -19 -24 -34 0
4 9 14 20 25 36 0
-4 -9 -14 -20 -25 -36 0
4 10 11 16 17 18 0
-4 -10 -11 -16 -17 -18 0
4 10 12 16 18 20 0
-4 -10 -12 -16 -18 -20 0
4 10 13 16 19 22 0
-4 -10 -13 -16 -19 -22 0
4 10 14 16 20 24 0
-4 -10 -14 -16 -20 -24 0
4 10 15 16 21 26 0
-4 -10 -15 -16 -21 -26 0
4 10 16 22 28 0
-4 -10 -16 -22 -28 0
4 10 16 17 23 30 0
-4 -10 -16 -17 -23 -30 0
4 10 16 18 24 32 0
-4 -10 -16 -18 -24 -32 0
4 10 16 19 25 34 0
-4 -10 -16 -19 -25 -34 0
4 10 16 20 26 36 0
-4 -10 -16 -20 -26 -36 0
4 11 12 18 19 20 0
-4 -11 -12 -18 -19 -20 0
4 11 13 18 20 22 0
-4 -11 -13 -18 -20 -22 0
4 11 14 18 21 24 0
-4 -11 -14 -18 -21 -24 0
4 11 15 18 22 26 0
-4 -11 -15 -18 -22 -26 0
4 11 16 18 23 28 0
-4 -11 -16 -18 -23 -28 0
4 11 17 18 24 30 0
-4 -11 -17 -18 -24 -30 0
4 11 18 25 32 0
-4 -11 -18 -25 -32 0
4 11 18 19 26 34 0
-4 -11 -18 -19 -26 -34 0
4 11 18 20 27 36 0
-4 -11 -18 -20 -27 -36 0
4 12 13 20 21 22 0
-4 -12 -13 -20 -21 -22 0
4 12 14 20 22 24 0
-4 -12 -14 -20 -22 -24 0
4 12 15 20 23 26 0
-4 -12 -15 -20 -23 -26 0
4 12 16 20 24 28 0
-4 -12 -16 -20 -24 -28 0
4 12 17 20 25 30 0
-4 -12 -17 -20 -25 -30 0
4 12 18 20 26 32 0
-4 -12 -18 -20 -26 -32 0
4 12 19 20 27 34 0
-4 -12 -19 -20 -27 -34 0
4 12 20 28 36 0
-4 -12 -20 -28 -36 0
4 13 14 22 23 24 0
-4 -13 -14 -22 -23 -24 0
4 13 15 22 24 26 0
-4 -13 -15 -22 -24 -26 0
4 13 16 22 25 28 0
-4 -13 -16 -22 -25 -28 0
4 13 17 22 26 30 0
-4 -13 -17 -22 -26 -30 0
4 13 18 22 27 32 0
-4 -13 -18 -22 -27 -32 0
4 13 19 22 28 34 0
-4 -13 -19 -22 -28 -34 0
4 13 20 22 29 36 0
-4 -13 -20 -22 -29 -36 0
4 14 15 24 25 26 0
-4 -14 -15 -24 -25 -26 0
4 14 16 24 26 28 0
-4 -14 -16 -24 -26 -28 0
4 14 17 24 27 30 0
-4 -14 -17 -24 -27 -30 0
4 14 18 24 28 32 0
-4 -14 -18 -24 -28 -32 0
4 14 19 24 29 34 0
-4 -14 -19 -24 -29 -34 0
4 14 20 24 30 36 0
-4 -14 -20 -24 -30 -36 0
4 15 16 26 27 28 0
-4 -15 -16 -26 -27 -28 0
4 15 17 26 28 30 0
-4 -15 -17 -26 -28 -30 0
4 15 18 26 29 32 0
-4 -15 -18 -26 -29 -32 0
4 15 19 26 30 34 0
-4 -15 -19 -26 -30 -34 0
4 15 20 26 31 36 0
-4 -15 -20 -26 -31 -36 0
4 16 17 28 29 30 0
-4 -16 -17 -28 -29 -30 0
4 16 18 28 30 32 0
-4 -16 -18 -28 -30 -32 0
4 16 19 28 31 34 0
-4 -16 -19 -28 -31 -34 0
4 16 20 28 32 36 0
-4 -16 -20 -28 -32 -36 0
4 17 18 30 31 32 0
-4 -17 -18 -30 -31 -32 0
4 17 19 30 32 34 0
-4 -17 -19 -30 -32 -34 0
4 17 20 30 33 36 0
-4 -17 -20 -30 -33 -36 0
4 18 19 32 33 34 0
-4 -18 -19 -32 -33 -34 0
4 18 20 32 34 36 0
-4 -18 -20 -32 -34 -36 0
4 19 20 34 35 36 0
-4 -19 -20 -34 -35 -36 0
6 7 8 9 10 0
-6 -7 -8 -9 -10 0
6 7 8 9 10 12 0
-6 -7 -8 -9 -10 -12 0
6 7 8 10 11 14 0
-6 -7 -8 -10 -11 -14 0
6 7 8 11 12 16 0
-6 -7 -8 -11 -12 -16 0
6 7 8 12 13 18 0
-6 -7 -8 -12 -13 -18 0
6 7 8 13 14 20 0
-6 -7 -8 -13 -14 -20 0
6 7 8 14 15 22 0
-6 -7 -8 -14 -15 -22 0
6 7 8 15 16 24 0
-6 -7 -8 -15 -16 -24 0
6 7 8 16 17 26 0
-6 -7 -8 -16 -17 -26 0
6 7 8 17 18 28 0
-6 -7 -8 -17 -18 -28 0
6 7 8 18 19 30 0
-6 -7 -8 -18 -19 -30 0
6 7 8 19 20 32 0
-6 -7 -8 -19 -20 -32 0
6 7 8 20 21 34 0
-6 -7 -8 -20 -21 -34 0
6 7 8 21 22 36 0
-6 -7 -8 -21 -22 -36 0
6 8 9 10 11 12 0
-6 -8 -9 -10 -11 -12 0
6 8 10 12 14 0
-6 -8 -10 -12 -14 0
6 8 10 11 13 16 0
-6 -8 -10 -11 -13 -16 0
6 8 10 12 14 18 0
-6 -8 -10 -12 -14 -18 0
6 8 10 13 15 20 0
-6 -8 -10 -13 -15 -20 0
6 8 10 14 16 22 0
-6 -8 -10 -14 -16 -22 0
6 8 10 15 17 24 0
-6 -8 -10 -15 -17 -24 0
6 8 10 16 18 26 0
-6 -8 -10 -16 -18 -26 0
6 8 10 17 19 28 0
-6 -8 -10 -17 -19 -28 0
6 8 10 18 20 30 0
-6 -8 -10 -18 -20 -30 0
6 8 10 19 21 32 0
-6 -8 -10 -19 -21 -32 0
6 8 10 20 22 34 0
-6 -8 -10 -20 -22 -34 0
6 8 10 21 23 36 0
-6 -8 -10 -21 -23 -36 0
6 9 10 12 13 14 0
-6 -9 -10 -12 -13 -14 0
6 9 11 12 14 16 0
-6 -9 -11 -12 -14 -16 0
6 9 12 15 18 0
-6 -9 -12 -15 -18 0
6 9 12 13 16 20 0
-6 -9 -12 -13 -16 -20 0
6 9 12 14 17 22 0
-6 -9 -12 -14 -17 -22 0
6 9 12 15 18 24 0
-6 -9 -12 -15 -18 -24 0
6 9 12 16 19 26 0
-6 -9 -12 -16 -19 -26 0
6 9 12 17 20 28 0
-6 -9 -12 -17 -20 -28 0
6 9 12 18 21 30 0
-6 -9 -12 -18 -21 -30 0
6 9 12 19 22 32 0
-6 -9 -12 -19 -22 -32 0
6 9 12 20 23 34 0
-6 -9 -12 -20 -23 -34 0
6 9 12 21 24 36 0
-6 -9 -12 -21 -24 -36 0
6 10 11 14 15 16 0
-6 -10 -11 -14 -15 -16 0
6 10 12 14 16 18 0
-6 -10 -12 -14 -16 -18 0
6 10 13 14 17 20 0
-6 -10 -13 -14 -17 -20 0
6 10 14 18 22 0
-6 -10 -14 -18 -22 0
6 10 14 15 19 24 0
-6 -10 -14 -15 -19 -24 0
6 10 14 16 20 26 0
-6 -10 -14 -16 -20 -26 0
6 10 14 17 21 28 0
-6 -10 -14 -17 -21 -28 0
6 10 14 18 22 30 0
-6 -10 -14 -18 -22 -30 0
6 10 14 19 23 32 0
-6 -10 -14 -19 -23 -32 0
6 10 14 20 24 34 0
-6 -10 -14 -20 -24 -34 0
6 10 14 21 25 36 0
-6 -10 -14 -21 -25 -36 0
6 11 12 16 17 18 0
-6 -11 -12 -16 -17 -18 0
6 11 13 16 18 20 0
-6 -11 -13 -16 -18 -20 0
6 11 14 16 19 22 0
-6 -11 -14 -16 -19 -22 0
6 11 15 16 20 24 0
-6 -11 -15 -16 -20 -24 0
6 11 16 21 26 0
-6 -11 -16 -21 -26 0
6 11 16 17 22 28 0
-6 -11 -16 -17 -22 -28 0
6 11 16 18 23 30 0
-6 -11 -16 -18 -23 -30 0
6 11 16 19 24 32 0
-6 -11 -16 -19 -24 -32 0
6 11 16 20 25 34 0
-6 -11 -16 -20 -25 -34 0
6 11 16 21 26 36 0
-6 -11 -16 -21 -26 -36 0
6 12 13 18 19 20 0
-6 -12 -13 -18 -19 -20 0
6 12 14 18 20 22 0
-6 -12 -14 -18 -20 -22 0
6 12 15 18 21 24 0
-6 -12 -15 -18 -21 -24 0
6 12 16 18 22 26 0
-6 -12 -16 -18 -22 -26 0
6 12 17 18 23 28 0
-6 -12 -17 -18 -23 -28 0
6 12 18 24 30 0
-6 -12 -18 -24 -30 0
6 12 18 19 25 32 0
-6 -12 -18 -19 -25 -32 0
6 12 18 20 26 34 0
-6 -12 -18 -20 -26 -34 0
6 12 18 21 27 36 0
-6 -12 -18 -21 -27 -36 0
6 13 14 20 21 22 0
-6 -13 -14 -20 -21 -22 0
6 13 15 20 22 24 0
-6 -13 -15 -20 -22 -24 0
6 13 16 20 23 26 0
-6 -13 -16 -20 -23 -26 0
6 13 17 20 24 28 0
-6 -13 -17 -20 -24 -28 0
6 13 18 20 25 30 0
-6 -13 -18 -20 -25 -30 0
6 13 19 20 26 32 0
-6 -13 -19 -20 -26 -32 0
6 13 20 27 34 0
-6 -13 -20 -27 -34 0
6 13 20 21 28 36 0
-6 -13 -20 -21 -28 -36 0
6 14 15 22 23 24 0
-6 -14 -15 -22 -23 -24 0
6 14 16 22 24 26 0
-6 -14 -16 -22 -24 -26 0
6 14 17 22 25 28 0
-6 -14 -17 -22 -25 -28 0
6 14 18 22 26 30 0
-6 -14 -18 -22 -26 -30 0
6 14 19 22 27 32 0
-6 -14 -19 -22 -27 -32 0
6 14 20 22 28 34 0
-6 -14 -20 -22 -28 -34 0
6 14 21 22 29 36 0
-6 -14 -21 -22 -29 -36 0
6 15 16 24 25 26 0
-6 -15 -16 -24 -25 -26 0
6 15 17 24 26 28 0
-6 -15 -17 -24 -26 -28 0
6 15 18 24 27 30 0
-6 -15 -18 -24 -27 -30 0
6 15 19 24 28 32 0
-6 -15 -19 -24 -28 -32 0
6 15 20 24 29 34 0
-6 -15 -20 -24 -29 -34 0
6 15 21 24 30 36 0
-6 -15 -21 -24 -30 -36 0
6 16 17 26 27 28 0
-6 -16 -17 -26 -27 -28 0
6 16 18 26 28 30 0
-6 -16 -18 -26 -28 -30 0
6 16 19 26 29 32 0
-6 -16 -19 -26 -29 -32 0
6 16 20 26 30 34 0
-6 -16 -20 -26 -30 -34 0
6 16 21 26 31 36 0
-6 -16 -21 -26 -31 -36 0
6 17 18 28 29 30 0
-6 -17 -18 -28 -29 -30 0
6 17 19 28 30 32 0
-6 -17 -19 -28 -30 -32 0
6 17 20 28 31 34 0
-6 -17 -20 -28 -31 -34 0
6 17 21 28 32 36 0
-6 -17 -21 -28 -32 -36 0
6 18 19 30 31 32 0
-6 -18 -19 -30 -31 -32 0
6 18 20 30 32 34 0
-6 -18 -20 -30 -32 -34 0
6 18 21 30 33 36 0
-6 -18 -21 -30 -33 -36 0
6 19 20 32 33 34 0
-6 -19 -20 -32 -33 -34 0
6 19 21 32 34 36 0
-6 -19 -21 -32 -34 -36 0
6 20 21 34 35 36 0
-6 -20 -21 -34 -35 -36 0
8 9 10 11 12 0
-8 -9 -10 -11 -12 0
8 9 10 11 12 14 0
-8 -9 -10 -11 -12 -14 0
8 9 10 12 13 16 0
-8 -9 -10 -12 -13 -16 0
8 9 10 13 14 18 0
-8 -9 -10 -13 -14 -18 0
8 9 10 14 15 20 0
-8 -9 -10 -14 -15 -20 0
8 9 10 15 16 22 0
-8 -9 -10 -15 -16 -22 0
8 9 10 16 17 24 0
-8 -9 -10 -16 -17 -24 0
8 9 10 17 18 26 0
-8 -9 -10 -17 -18 -26 0
8 9 10 18 19 28 0
-8 -9 -10 -18 -19 -28 0
8 9 10 19 20 30 0
-8 -9 -10 -19 -20 -30 0
8 9 10 20 21 32 0
-8 -9 -10 -20 -21 -32 0
8 9 10 21 22 34 0
-8 -9 -10 -21 -22 -34 0
8 9 10 22 23 36 0
-8 -9 -10 -22 -23 -36 0
8 10 11 12 13 14 0
-8 -10 -11 -12 -13 -14 0
8 10 12 14 16 0
-8 -10 -12 -14 -16 0
8 10 12 13 15 18 0
-8 -10 -12 -13 -15 -18 0
8 10 12 14 16 20 0
-8 -10 -12 -14 -16 -20 0
8 10 12 15 17 22 0
-8 -10 -12 -15 -17 -22 0
8 10 12 16 18 24 0
-8 -10 -12 -16 -18 -24 0
8 10 12 17 19 26 0
-8 -10 -12 -17 -19 -26 0
8 10 12 18 20 28 0
-8 -10 -12 -18 -20 -28 0
8 10 12 19 21 30 0
-8 -10 -12 -19 -21 -30 0
8 10 12 20 22 32 0
-8 -10 -12 -20 -22 -32 0
8 10 12 21 23 34 0
-8 -10 -12 -21 -23 -34 0
8 10 12 22 24 36 0
-8 -10 -12 -22 -24 -36 0
8 11 12 14 15 16 0
-8 -11 -12 -14 -15 -16 0
8 11 13 14 16 18 0
-8 -11 -13 -14 -16 -18 0
8 11 14 17 20 0
-8 -11 -14 -17 -20 0
8 11 14 15 18 22 0
-8 -11 -14 -15 -18 -22 0
8 11 14 16 19 24 0
-8 -11 -14 -16 -19 -24 0
8 11 14 17 20 26 0
-8 -11 -14 -17 -20 -26 0
8 11 14 18 21 28 0
-8 -11 -14 -18 -21 -28 0
8 11 14 19 22 30 0
-8 -11 -14 -19 -22 -30 0
8 11 14 20 23 32 0
-8 -11 -14 -20 -23 -32 0
8 11 14 21 24 34 0
-8 -11 -14 -21 -24 -34 0
8 11 14 22 25 36 0
-8 -11 -14 -22 -25 -36 0
8 12 13 16 17 18 0
-8 -12 -13 -16 -17 -18 0
8 12 14 16 18 20 0
-8 -12 -14 -16 -18 -20 0
8 12 15 16 19 22 0
-8 -12 -15 -16 -19 -22 0
8 12 16 20 24 0
-8 -12 -16 -20 -24 0
8 12 16 17 21 26 0
-8 -12 -16 -17 -21 -26 0
8 12 16 18 22 28 0
-8 -12 -16 -18 -22 -28 0
8 12 16 19 23 30 0
-8 -12 -16 -19 -23 -30 0
8 12 16 20 24 32 0
-8 -12 -16 -20 -24 -32 0
8 12 16 21 25 34 0
-8 -12 -16 -21 -25 -34 0
8 12 16 22 26 36 0
-8 -12 -16 -22 -26 -36 0
8 13 14 18 19 20 0
-8 -13 -14 -18 -19 -20 0
8 13 15 18 20 22 0
-8 -13 -15 -18 -20 -22 0
8 13 16 18 21 24 0
-8 -13 -16 -18 -21 -24 0
8 13 17 18 22 26 0
-8 -13 -17 -18 -22 -26 0
8 13 18 23 28 0
-8 -13 -18 -23 -28 0
8 13 18 19 24 30 0
-8 -13 -18 -19 -24 -30 0
8 13 18 20 25 32 0
-8 -13 -18 -20 -25 -32 0
8 13 18 21 26 34 0
-8 -13 -18 -21 -26 -34 0
8 13 18 22 27 36 0
-8 -13 -18 -22 -27 -36 0
8 14 15 20 21 22 0
-8 -14 -15 -20 -21 -22 0
8 14 16 20 22 24 0
-8 -14 -16 -20 -22 -24 0
8 14 17 20 23 26 0
-8 -14 -17 -20 -23 -26 0
8 14 18 20 24 28 0
-8 -14 -18 -20 -24 -28 0
8 14 19 20 25 30 0
-8 -14 -19 -20 -25 -30 0
8 14 20 26 32 0
-8 -14 -20 -26 -32 0
8 14 20 21 27 34 0
-8 -14 -20 -21 -27 -34 0
8 14 20 22 28 36 0
-8 -14 -20 -22 -28 -36 0
8 15 16 22 23 24 0
-8 -15 -16 -22 -23 -24 0
8 15 17 22 24 26 0
-8 -15 -17 -22 -24 -26 0
8 15 18 22 25 28 0
-8 -15 -18 -22 -25 -28 0
8 15 19 22 26 30 0
-8 -15 -19 -22 -26 -30 0
8 15 20 22 27 32 0
-8 -15 -20 -22 -27 -32 0
8 15 21 22 28 34 0
-8 -15 -21 -22 -28 -34 0
8 15 22 29 36 0
-8 -15 -22 -29 -36 0
8 16 17 24 25 26 0
-8 -16 -17 -24 -25 -26 0
8 16 18 24 26 28 0
-8 -16 -18 -24 -26 -28 0
8 16 19 24 27 30 0
-8 -16 -19 -24 -27 -30 0
8 16 20 24 28 32 0
-8 -16 -20 -24 -28 -32 0
8 16 21 24 29 34 0
-8 -16 -21 -24 -29 -34 0
8 16 22 24 30 36 0
-8 -16 -22 -24 -30 -36 0
8 17 18 26 27 28 0
-8 -17 -18 -26 -27 -28 0
8 17 19 26 28 30 0
-8 -17 -19 -26 -28 -30 0
8 17 20 26 29 32 0
-8 -17 -20 -26 -29 -32 0
8 17 21 26 30 34 0
-8 -17 -21 -26 -30 -34 0
8 17 22 26 31 36 0
-8 -17 -22 -26 -31 -36 0
8 18 19 28 29 30 0
-8 -18 -19 -28 -29 -30 0
8 18 20 28 30 32 0
-8 -18 -20 -28 -30 -32 0
8 18 21 28 31 34 0
-8 -18 -21 -28 -31 -34 0
8 18 22 28 32 36 0
-8 -18 -22 -28 -32 -36 0
8 19 20 30 31 32 0
-8 -19 -20 -30 -31 -32 0
8 19 21 30 32 34 0
-8 -19 -21 -30 -32 -34 0
8 19 22 30 33 36 0
-8 -19 -22 -30 -33 -36 0
8 20 21 32 33 34 0
-8 -20 -21 -32 -33 -34 0
8 20 22 32 34 36 0
-8 -20 -22 -32 -34 -36 0
8 21 22 34 35 36 0
-8 -21 -22 -34 -35 -36 0
10 11 12 13 14 0
-10 -11 -12 -13 -14 0
10 11 12 13 14 16 0
-10 -11 -12 -13 -14 -16 0
10 11 12 14 15 18 0
-10 -11 -12 -14 -15 -18 0
10 11 12 15 16 20 0
-10 -11 -12 -15 -16 -20 0
10 11 12 16 17 22 0
-10 -11 -12 -16 -17 -22 0
10 11 12 17 18 24 0
-10 -11 -12 -17 -18 -24 0
10 11 12 18 19 26 0
-10 -11 -12 -18 -19 -26 0
10 11 12 19 20 28 0
-10 -11 -12 -19 -20 -28 0
10 11 12 20 21 30 0
-10 -11 -12 -20 -21 -30 0
10 11 12 21 22 32 0
-10 -11 -12 -21 -22 -32 0
10 11 12 22 23 34 0
-10 -11 -12 -22 -23 -34 0
10 11 12 23 24 36 0
-10 -11 -12 -23 -24 -36 0
10 12 13 14 15 16 0
-10 -12 -13 -14 -15 -16 0
10 12 14 16 18 0
-10 -12 -14 -16 -18 0
10 12 14 15 17 20 0
-10 -12 -14 -15 -17 -20 0
10 12 14 16 18 22 0
-10 -12 -14 -16 -18 -22 0
10 12 14 17 19 24 0
-10 -12 -14 -17 -19 -24 0
10 12 14 18 20 26 0
-10 -12 -14 -18 -20 -26 0
10 12 14 19 21 28 0
-10 -12 -14 -19 -21 -28 0
10 12 14 20 22 30 0
-10 -12 -14 -20 -22 -30 0
10 12 14 21 23 32 0
-10 -12 -14 -21 -23 -32 0
10 12 14 22 24 34 0
-10 -12 -14 -22 -24 -34 0
10 12 14 23 25 36 0
-10 -12 -14 -23 -25 -36 0
10 13 14 16 17 18 0
-10 -13 -14 -16 -17 -18 0
10 13 15 16 18 20 0
-10 -13 -15 -16 -18 -20 0
10 13 16 19 22 0
-10 -13 -16 -19 -22 0
10 13 16 17 20 24 0
-10 -13 -16 -17 -20 -24 0
10 13 16 18 21 26 0
-10 -13 -16 -18 -21 -26 0
10 13 16 19 22 28 0
-10 -13 -16 -19 -22 -28 0
10 13 16 20 23 30 0
-10 -13 -16 -20 -23 -30 0
10 13 16 21 24 32 0
-10 -13 -16 -21 -24 -32 0
10 13 16 22 25 34 0
-10 -13 -16 -22 -25 -34 0
10 13 16 23 26 36 0
-10 -13 -16 -23 -26 -36 0
10 14 15 18 19 20 0
-10 -14 -15 -18 -19 -20 0
10 14 16 18 20 22 0
-10 -14 -16 -18 -20 -22 0
10 14 17 18 21 24 0
-10 -14 -17 -18 -21 -24 0
10 14 18 22 26 0
-10 -14 -18 -22 -26 0
10 14 18 19 23 28 0
-10 -14 -18 -19 -23 -28 0
10 14 18 20 24 30 0
-10 -14 -18 -20 -24 -30 0
10 14 18 21 25 32 0
-10 -14 -18 -21 -25 -32 0
10 14 18 22 26 34 0
-10 -14 -18 -22 -26 -34 0
10 14 18 23 27 36 0
-10 -14 -18 -23 -27 -36 0
10 15 16 20 21 22 0
-10 -15 -16 -20 -21 -22 0
10 15 17 20 22 24 0
-10 -15 -17 -20 -22 -24 0
10 15 18 20 23 26 0
-10 -15 -18 -20 -23 -26 0
10 15 19 20 24 28 0
-10 -15 -19 -20 -24 -28 0
10 15 20 25 30 0
-10 -15 -20 -25 -30 0
10 15 20 21 26 32 0
-10 -15 -20 -21 -26 -32 0
10 15 20 22 27 34 0
-10 -15 -20 -22 -27 -34 0
10 15 20 23 28 36 0
-10 -15 -20 -23 -28 -36 0
10 16 17 22 23 24 0
-10 -16 -17 -22 -23 -24 0
10 16 18 22 24 26 0
-10 -16 -18 -22 -24 -26 0
10 16 19 22 25 28 0
-10 -16 -19 -22 -25 -28 0
10 16 20 22 26 30 0
-10 -16 -20 -22 -26 -30 0
10 16 21 22 27 32 0
-10 -16 -21 -22 -27 -32 0
10 16 22 28 34 0
-10 -16 -22 -28 -34 0
10 16 22 23 29 36 0
-10 -16 -22 -23 -29 -36 0
10 17 18 24 25 26 0
-10 -17 -18 -24 -25 -26 0
10 17 19 24 26 28 0
-10 -17 -19 -24 -26 -28 0
10 17 20 24 27 30 0
-10 -17 -20 -24 -27 -30 0
10 17 21 24 28 32 0
-10 -17 -21 -24 -28 -32 0
10 17 22 24 29 34 0
-10 -17 -22 -24 -29 -34 0
10 17 23 24 30 36 0
-10 -17 -23 -24 -30 -36 0
10 18 19 26 27 28 0
-10 -18 -19 -26 -27 -28 0
10 18 20 26 28 30 0
-10 -18 -20 -26 -28 -30 0
10 18 21 26 29 32 0
-10 -18 -21 -26 -29 -32 0
10 18 22 26 30 34 0
-10 -18 -22 -26 -30 -34 0
10 18 23 26 31 36 0
-10 -18 -23 -26 -31 -36 0
10 19 20 28 29 30 0
-10 -19 -20 -28 -29 -30 0
10 19 21 28 30 32 0
-10 -19 -21 -28 -30 -32 0
10 19 22 28 31 34 0
-10 -19 -22 -28 -31 -34 0
10 19 23 28 32 36 0
-10 -19 -23 -28 -32 -36 0
10 20 21 30 31 32 0
-10 -20 -21 -30 -31 -32 0
10 20 22 30 32 34 0
-10 -20 -22 -30 -32 -34 0
10 20 23 30 33 36 0
-10 -20 -23 -30 -33 -36 0
10 21 22 32 33 34 0
-10 -21 -22 -32 -33 -34 0
10 21 23 32 34 36 0
-10 -21 -23 -32 -34 -36 0
10 22 23 34 35 36 0
-10 -22 -23 -34 -35 -36 0
12 13 14 15 16 0
-12 -13 -14 -15 -16 0
12 13 14 15 16 18 0
-12 -13 -14 -15 -16 -18 0
12 13 14 16 17 20 0
-12 -13 -14 -16 -17 -20 0
12 13 14 17 18 22 0
-12 -13 -14 -17 -18 -22 0
12 13 14 18 19 24 0
-12 -13 -14 -18 -19 -24 0
12 13 14 19 20 26 0
-12 -13 -14 -19 -20 -26 0
12 13 14 20 21 28 0
-12 -13 -14 -20 -21 -28 0
12 13 14 21 22 30 0
-12 -13 -14 -21 -22 -30 0
12 13 14 22 23 32 0
-12 -13 -14 -22 -23 -32 0
12 13 14 23 24 34 0
-12 -13 -14 -23 -24 -34 0
12 13 14 24 25 36 0
-12 -13 -14 -24 -25 -36 0
12 14 15 16 17 18 0
-12 -14 -15 -16 -17 -18 0
12 14 16 18 20 0
-12 -14 -16 -18 -20 0
12 14 16 17 19 22 0
-12 -14 -16 -17 -19 -22 0
12 14 16 18 20 24 0
-12 -14 -16 -18 -20 -24 0
12 14 16 19 21 26 0
-12 -14 -16 -19 -21 -26 0
12 14 16 20 22 28 0
-12 -14 -16 -20 -22 -28 0
12 14 16 21 23 30 0
-12 -14 -16 -21 -23 -30 0
12 14 16 22 24 32 0
-12 -14 -16 -22 -24 -32 0
12 14 16 23 25 34 0
-12 -14 -16 -23 -25 -34 0
12 14 16 24 26 36 0
-12 -14 -16 -24 -26 -36 0
12 15 16 18 19 20 0
-12 -15 -16 -18 -19 -20 0
12 15 17 18 20 22 0
-12 -15 -17 -18 -20 -22 0
12 15 18 21 24 0
-12 -15 -18 -21 -24 0
12 15 18 19 22 26 0
-12 -15 -18 -19 -22 -26 0
12 15 18 20 23 28 0
-12 -15 -18 -20 -23 -28 0
12 15 18 21 24 30 0
-12 -15 -18 -21 -24 -30 0
12 15 18 22 25 32 0
-12 -15 -18 -22 -25 -32 0
12 15 18 23 26 34 0
-12 -15 -18 -23 -26 -34 0
12 15 18 24 27 36 0
-12 -15 -18 -24 -27 -36 0
12 16 17 20 21 22 0
-12 -16 -17 -20 -21 -22 0
12 16 18 20 22 24 0
-12 -16 -18 -20 -22 -24 0
12 16 19 20 23 26 0
-12 -16 -19 -20 -23 -26 0
12 16 20 24 28 0
-12 -16 -20 -24 -28 0
12 16 20 21 25 30 0
-12 -16 -20 -21 -25 -30 0
12 16 20 22 26 32 0
-12 -16 -20 -22 -26 -32 0
12 16 20 23 27 34 0
-12 -16 -20 -23 -27 -34 0
12 16 20 24 28 36 0
-12 -16 -20 -24 -28 -36 0
12 17 18 22 23 24 0
-12 -17 -18 -22 -23 -24 0
12 17 19 22 24 26 0
-12 -17 -19 -22 -24 -26 0
12 17 20 22 25 28 0
-12 -17 -20 -22 -25 -28 0
12 17 21 22 26 30 0
-12 -17 -21 -22 -26 -30 0
12 17 22 27 32 0
-12 -17 -22 -27 -32 0
12 17 22 23 28 34 0
-12 -17 -22 -23 -28 -34 0
12 17 22 24 29 36 0
-12 -17 -22 -24 -29 -36 0
12 18 19 24 25 26 0
-12 -18 -19 -24 -25 -26 0
12 18 20 24 26 28 0
-12 -18 -20 -24 -26 -28 0
12 18 21 24 27 30 0
-12 -18 -21 -24 -27 -30 0
12 18 22 24 28 32 0
-12 -18 -22 -24 -28 -32 0
12 18 23 24 29 34 0
-12 -18 -23 -24 -29 -34 0
12 18 24 30 36 0
-12 -18 -24 -30 -36 0
12 19 20 26 27 28 0
-12 -19 -20 -26 -27 -28 0
12 19 21 26 28 30 0
-12 -19 -21 -26 -28 -30 0
12 19 22 26 29 32 0
-12 -19 -22 -26 -29 -32 0
12 19 23 26 30 34 0
-12 -19 -23 -26 -30 -34 0
12 19 24 26 31 36 0
-12 -19 -24 -26 -31 -36 0
12 20 21 28 29 30 0
-12 -20 -21 -28 -29 -30 0
12 20 22 28 30 32 0
-12 -20 -22 -28 -30 -32 0
12 20 23 28 31 34 0
-12 -20 -23 -28 -31 -34 0
12 20 24 28 32 36 0
-12 -20 -24 -28 -32 -36 0
12 21 22 30 31 32 0
-12 -21 -22 -30 -31 -32 0
12 21 23 30 32 34 0
-12 -21 -23 -30 -32 -34 0
12 21 24 30 33 36 0
-12 -21 -24 -30 -33 -36 0
12 22 23 32 33 34 0
-12 -22 -23 -32 -33 -34 0
12 22 24 32 34 36 0
-12 -22 -24 -32 -34 -36 0
12 23 24 34 35 36 0
-12 -23 -24 -34 -35 -36 0
14 15 16 17 18 0
-14 -15 -16 -17 -18 0
14 15 16 17 18 20 0
-14 -15 -16 -17 -18 -20 0
14 15 16 18 19 22 0
-14 -15 -16 -18 -19 -22 0
14 15 16 19 20 24 0
-14 -15 -16 -19 -20 -24 0
14 15 16 20 21 26 0
-14 -15 -16 -20 -21 -26 0
14 15 16 21 22 28 0
-14 -15 -16 -21 -22 -28 0
14 15 16 22 23 30 0
-14 -15 -16 -22 -23 -30 0
14 15 16 23 24 32 0
-14 -15 -16 -23 -24 -32 0
14 15 16 24 25 34 0
-14 -15 -16 -24 -25 -34 0
14 15 16 25 26 36 0
-14 -15 -16 -25 -26 -36 0
14 16 17 18 19 20 0
-14 -16 -17 -18 -19 -20 0
14 16 18 20 22 0
-14 -16 -18 -20 -22 0
14 16 18 19 21 24 0
-14 -16 -18 -19 -21 -24 0
14 16 18 20 22 26 0
-14 -16 -18 -20 -22 -26 0
14 16 18 21 23 28 0
-14 -16 -18 -21 -23 -28 0
14 16 18 22 24 30 0
-14 -16 -18 -22 -24 -30 0
14 16 18 23 25 32 0
-14 -16 -18 -23 -25 -32 0
14 16 18 24 26 34 0
-14 -16 -18 -24 -26 -34 0
14 16 18 25 27 36 0
-14 -16 -18 -25 -27 -36 0
14 17 18 20 21 22 0
-14 -17 -18 -20 -21 -22 0
14 17 19 20 22 24 0
-14 -17 -19 -20 -22 -24 0
14 17 20 23 26 0
-14 -17 -20 -23 -26 0
14 17 20 21 24 28 0
-14 -17 -20 -21 -24 -28 0
14 17 20 22 25 30 0
-14 -17 -20 -22 -25 -30 0
14 17 20 23 26 32 0
-14 -17 -20 -23 -26 -32 0
14 17 20 24 27 34 0
-14 -17 -20 -24 -27 -34 0
14 17 20 25 28 36 0
-14 -17 -20 -25 -28 -36 0
14 18 19 22 23 24 0
-14 -18 -19 -22 -23 -24 0
14 18 20 22 24 26 0
-14 -18 -20 -22 -24 -26 0
14 18 21 22 25 28 0
-14 -18 -21 -22 -25 -28 0
14 18 22 26 30 0
-14 -18 -22 -26 -30 0
14 18 22 23 27 32 0
-14 -18 -22 -23 -27 -32 0
14 18 22 24 28 34 0
-14 -18 -22 -24 -28 -34 0
14 18 22 25 29 36 0
-14 -18 -22 -25 -29 -36 0
14 19 20 24 25 26 0
-14 -19 -20 -24 -25 -26 0
14 19 21 24 26 28 0
-14 -19 -21 -24 -26 -28 0
14 19 22 24 27 30 0
-14 -19 -22 -24 -27 -30 0
14 19 23 24 28 32 0
-14 -19 -23 -24 -28 -32 0
14 19 24 29 34 0
-14 -19 -24 -29 -34 0
14 19 24 25 30 36 0
-14 -19 -24 -25 -30 -36 0
14 20 21 26 27 28 0
-14 -20 -21 -26 -27 -28 0
14 20 22 26 28 30 0
-14 -20 -22 -26 -28 -30 0
14 20 23 26 29 32 0
-14 -20 -23 -26 -29 -32 0
14 20 24 26 30 34 0
-14 -20 -24 -26 -30 -34 0
14 20 25 26 31 36 0
-14 -20 -25 -26 -31 -36 0
14 21 22 28 29 30 0
-14 -21 -22 -28 -29 -30 0
14 21 23 28 30 32 0
-14 -21 -23 -28 -30 -32 0
14 21 24 28 31 34 0
-14 -21 -24 -28 -31 -34 0
14 21 25 28 32 36 0
-14 -21 -25 -28 -32 -36 0
14 22 23 30 31 32 0
-14 -22 -23 -30 -31 -32 0
14 22 24 30 32 34 0
-14 -22 -24 -30 -32 -34 0
14 22 25 30 33 36 0
-14 -22 -25 -30 -33 -36 0
14 23 24 32 33 34 0
-14 -23 -24 -32 -33 -34 0
14 23 25 32 34 36 0
-14 -23 -25 -32 -34 -36 0
14 24 25 34 35 36 0
-14 -24 -25 -34 -35 -36 0
16 17 18 19 20 0
-16 -17 -18 -19 -20 0
16 17 18 19 20 22 0
-16 -17 -18 -19 -20 -22 0
16 17 18 20 21 24 0
-16 -17 -18 -20 -21 -24 0
16 17 18 21 22 26 0
-16 -17 -18 -21 -22 -26 0
16 17 18 22 23 28 0
-16 -17 -18 -22 -23 -28 0
16 17 18 23 24 30 0
-16 -17 -18 -23 -24 -30 0
16 17 18 24 25 32 0
-16 -17 -18 -24 -25 -32 0
16 17 18 25 26 34 0
-16 -17 -18 -25 -26 -34 0
16 17 18 26 27 36 0
-16 -17 -18 -26 -27 -36 0
16 18 19 20 21 22 0
-16 -18 -19 -20 -21 -22 0
16 18 20 22 24 0
-16 -18 -20 -22 -24 0
16 18 20 21 23 26 0
-16 -18 -20 -21 -23 -26 0
16 18 20 22 24 28 0
-16 -18 -20 -22 -24 -28 0
16 18 20 23 25 30 0
-16 -18 -20 -23 -25 -30 0
16 18 20 24 26 32 0
-16 -18 -20 -24 -26 -32 0
16 18 20 25 27 34 0
-16 -18 -20 -25 -27 -34 0
16 18 20 26 28 36 0
-16 -18 -20 -26 -28 -36 0
16 19 20 22 23 24 0
-16 -19 -20 -22 -23 -24 0
16 19 21 22 24 26 0
-16 -19 -21 -22 -24 -26 0
16 19 22 25 28 0
-16 -19 -22 -25 -28 0
16 19 22 23 26 30 0
-16 -19 -22 -23 -26 -30 0
16 19 22 24 27 32 0
-16 -19 -22 -24 -27 -32 0
16 19 22 25 28 34 0
-16 -19 -22 -25 -28 -34 0
16 19 22 26 29 36 0
-16 -19 -22 -26 -29 -36 0
16 20 21 24 25 26 0
-16 -20 -21 -24 -25 -26 0
16 20 22 24 26 28 0
-16 -20 -22 -24 -26 -28 0
16 20 23 24 27 30 0
-16 -20 -23 -24 -27 -30 0
16 20 24 28 32 0
-16 -20 -24 -28 -32 0
16 20 24 25 29 34 0
-16 -20 -24 -25 -29 -34 0
16 20 24 26 30 36 0
-16 -20 -24 -26 -30 -36 0
16 21 22 26 27 28 0
-16 -21 -22 -26 -27 -28 0
16 21 23 26 28 30 0
-16 -21 -23 -26 -28 -30 0
16 21 24 26 29 32 0
-16 -21 -24 -26 -29 -32 0
16 21 25 26 30 34 0
-16 -21 -25 -26 -30 -34 0
16 21 26 31 36 0
-16 -21 -26 -31 -36 0
16 22 23 28 29 30 0
-16 -22 -23 -28 -29 -30 0
16 22 24 28 30 32 0
-16 -22 -24 -28 -30 -32 0
16 22 25 28 31 34 0
-16 -22 -25 -28 -31 -34 0
16 22 26 28 32 36 0
-16 -22 -26 -28 -32 -36 0
16 23 24 30 31 32 0
-16 -23 -24 -30 -31 -32 0
16 23 25 30 32 34 0
-16 -23 -25 -30 -32 -34 0
16 23 26 30 33 36 0
-16 -23 -26 -30 -33 -36 0
16 24 25 32 33 34 0
-16 -24 -25 -32 -33 -34 0
16 24 26 32 34 36 0
-16 -24 -26 -32 -34 -36 0
16 25 26 34 35 36 0
-16 -25 -26 -34 -35 -36 0
18 19 20 21 22 0
-18 -19 -20 -21 -22 0
18 19 20 21 22 24 0
-18 -19 -20 -21 -22 -24 0
18 19 20 22 23 26 0
-18 -19 -20 -22 -23 -26 0
18 19 20 23 24 28 0
-18 -19 -20 -23 -24 -28 0
18 19 20 24 25 30 0
-18 -19 -20 -24 -25 -30 0
18 19 20 25 26 32 0
-18 -19 -20 -25 -26 -32 0
18 19 20 26 27 34 0
-18 -19 -20 -26 -27 -34 0
18 19 20 27 28 36 0
-18 -19 -20 -27 -28 -36 0
18 20 21 22 23 24 0
-18 -20 -21 -22 -23 -24 0
18 20 22 24 26 0
-18 -20 -22 -24 -26 0
18 20 22 23 25 28 0
-18 -20 -22 -23 -25 -28 0
18 20 22 24 26 30 0
-18 -20 -22 -24 -26 -30 0
18 20 22 25 27 32 0
-18 -20 -22 -25 -27 -32 0
18 20 22 26 28 34 0
-18 -20 -22 -26 -28 -34 0
18 20 22 27 29 36 0
-18 -20 -22 -27 -29 -36 0
18 21 22 24 25 26 0
-18 -21 -22 -24 -25 -26 0
18 21 23 24 26 28 0
-18 -21 -23 -24 -26 -28 0
18 21 24 27 30 0
-18 -21 -24 -27 -30 0
18 21 24 25 28 32 0
-18 -21 -24 -25 -28 -32 0
18 21 24 26 29 34 0
-18 -21 -24 -26 -29 -34 0
18 21 24 27 30 36 0
-18 -21 -24 -27 -30 -36 0
18 22 23 26 27 28 0
-18 -22 -23 -26 -27 -28 0
18 22 24 26 28 30 0
-18 -22 -24 -26 -28 -30 0
18 22 25 26 29 32 0
-18 -22 -25 -26 -29 -32 0
18 22 26 30 34 0
-18 -22 -26 -30 -34 0
18 22 26 27 31 36 0
-18 -22 -26 -27 -31 -36 0
18 23 24 28 29 30 0
-18 -23 -24 -28 -29 -30 0
18 23 25 28 30 32 0
-18 -23 -25 -28 -30 -32 0
18 23 26 28 31 34 0
-18 -23 -26 -28 -31 -34 0
18 23 27 28 32 36 0
-18 -23 -27 -28 -32 -36 0
18 24 25 30 31 32 0
-18 -24 -25 -30 -31 -32 0
18 24 26 30 32 34 0
-18 -24 -26 -30 -32 -34 0
18 24 27 30 33 36 0
-18 -24 -27 -30 -33 -36 0
18 25 26 32 33 34 0
-18 -25 -26 -32 -33 -34 0
18 25 27 32 34 36 0
-18 -25 -27 -32 -34 -36 0
18 26 27 34 35 36 0
-18 -26 -27 -34 -35 -36 0
20 21 22 23 24 0
-20 -21 -22 -23 -24 0
20 21 22 23 24 26 0
-20 -21 -22 -23 -24 -26 0
20 21 22 24 25 28 0
-20 -21 -22 -24 -25 -28 0
20 21 22 25 26 30 0
-20 -21 -22 -25 -26 -30 0
20 21 22 26 27 32 0
-20 -21 -22 -26 -27 -32 0
20 21 22 27 28 34 0
-20 -21 -22 -27 -28 -34 0
20 21 22 28 29 36 0
-20 -21 -22 -28 -29 -36 0
20 22 23 24 25 26 0
-20 -22 -23 -24 -25 -26 0
20 22 24 26 28 0
-20 -22 -24 -26 -28 0
20 22 24 25 27 30 0
-20 -22 -24 -25 -27 -30 0
20 22 24 26 28 32 0
-20 -22 -24 -26 -28 -32 0
20 22 24 27 29 34 0
-20 -22 -24 -27 -29 -34 0
20 22 24 28 30 36 0
-20 -22 -24 -28 -30 -36 0
20 23 24 26 27 28 0
-20 -23 -24 -26 -27 -28 0
20 23 25 26 28 30 0
-20 -23 -25 -26 -28 -30 0
20 23 26 29 32 0
-20 -23 -26 -29 -32 0
20 23 26 27 30 34 0
-20 -23 -26 -27 -30 -34 0
20 23 26 28 31 36 0
-20 -23 -26 -28 -31 -36 0
20 24 25 28 29 30 0
-20 -24 -25 -28 -29 -30 0
20 24 26 28 30 32 0
-20 -24 -26 -28 -30 -32 0
20 24 27 28 31 34 0
-20 -24 -27 -28 -31 -34 0
20 24 28 32 36 0
-20 -24 -28 -32 -36 0
20 25 26 30 31 32 0
-20 -25 -26 -30 -31 -32 0
20 25 27 30 32 34 0
-20 -25 -27 -30 -32 -34 0
20 25 28 30 33 36 0
-20 -25 -28 -30 -33 -36 0
20 26 27 32 33 34 0
-20 -26 -27 -32 -33 -34 0
20 26 28 32 34 36 0
-20 -26 -28 -32 -34 -36 0
20 27 28 34 35 36 0
-20 -27 -28 -34 -35 -36 0
22 23 24 25 26 0
-22 -23 -24 -25 -26 0
22 23 24 25 26 28 0
-22 -23 -24 -25 -26 -28 0
22 23 24 26 27 30 0
-22 -23 -24 -26 -27 -30 0
22 23 24 27 28 32 0
-22 -23 -24 -27 -28 -32 0
22 23 24 28 29 34 0
-22 -23 -24 -28 -29 -34 0
22 23 24 29 30 36 0
-22 -23 -24 -29 -30 -36 0
22 24 25 26 27 28 0
-22 -24 -25 -26 -27 -28 0
22 24 26 28 30 0
-22 -24 -26 -28 -30 0
22 24 26 27 29 32 0
-22 -24 -26 -27 -29 -32 0
22 24 26 28 30 34 0
-22 -24 -26 -28 -30 -34 0
22 24 26 29 31 36 0
-22 -24 -26 -29 -31 -36 0
22 25 26 28 29 30 0
-22 -25 -26 -28 -29 -30 0
22 25 27 28 30 32 0
-22 -25 -27 -28 -30 -32 0
22 25 28 31 34 0
-22 -25 -28 -31 -34 0
22 25 28 29 32 36 0
-22 -25 -28 -29 -32 -36 0
22 26 27 30 31 32 0
-22 -26 -27 -30 -31 -32 0
22 26 28 30 32 34 0
-22 -26 -28 -30 -32 -34 0
22 26 29 30 33 36 0
-22 -26 -29 -30 -33 -36 0
22 27 28 32 33 34 0
-22 -27 -28 -32 -33 -34 0
22 27 29 32 34 36 0
-22 -27 -29 -32 -34 -36 0
22 28 29 34 35 36 0
-22 -28 -29 -34 -35 -36 0
24 25 26 27 28 0
-24 -25 -26 -27 -28 0
24 25 26 27 28 30 0
-24 -25 -26 -27 -28 -30 0
24 25 26 28 29 32 0
-24 -25 -26 -28 -29 -32 0
24 25 26 29 30 34 0
-24 -25 -26 -29 -30 -34 0
24 25 26 30 31 36 0
-24 -25 -26 -30 -31 -36 0
24 26 27 28 29 30 0
-24 -26 -27 -28 -29 -30 0
24 26 28 30 32 0
-24 -26 -28 -30 -32 0
24 26 28 29 31 34 0
-24 -26 -28 -29 -31 -34 0
24 26 28 30 32 36 0
-24 -26 -28 -30 -32 -36 0
24 27 28 30 31 32 0
-24 -27 -28 -30 -31 -32 0
24 27 29 30 32 34 0
-24 -27 -29 -30 -32 -34 0
24 27 30 33 36 0
-24 -27 -30 -33 -36 0
24 28 29 32 33 34 0
-24 -28 -29 -32 -33 -34 0
24 28 30 32 34 36 0
-24 -28 -30 -32 -34 -36 0
24 29 30 34 35 36 0
-24 -29 -30 -34 -35 -36 0
26 27 28 29 30 0
-26 -27 -28 -29 -30 0
26 27 28 29 30 32 0
-26 -27 -28 -29 -30 -32 0
26 27 28 30 31 34 0
-26 -27 -28 -30 -31 -34 0
26 27 28 31 32 36 0
-26 -27 -28 -31 -32 -36 0
26 28 29 30 31 32 0
-26 -28 -29 -30 -31 -32 0
26 28 30 32 34 0
-26 -28 -30 -32 -34 0
26 28 30 31 33 36 0
-26 -28 -30 -31 -33 -36 0
26 29 30 32 33 34 0
-26 -29 -30 -32 -33 -34 0
26 29 31 32 34 36 0
-26 -29 -31 -32 -34 -36 0
26 30 31 34 35 36 0
-26 -30 -31 -34 -35 -36 0
28 29 30 31 32 0
-28 -29 -30 -31 -32 0
28 29 30 31 32 34 0
-28 -29 -30 -31 -32 -34 0
28 29 30 32 33 36 0
-28 -29 -30 -32 -33 -36 0
28 30 31 32 33 34 0
-28 -30 -31 -32 -33 -34 0
28 30 32 34 36 0
-28 -30 -32 -34 -36 0
28 31 32 34 35 36 0
-28 -31 -32 -34 -35 -36 0
30 31 32 33 34 0
-30 -31 -32 -33 -34 0
30 31 32 33 34 36 0
-30 -31 -32 -33 -34 -36 0
30 32 33 34 35 36 0
-30 -32 -33 -34 -35 -36 0
32 33 34 35 36 0
-32 -33 -34 -35 -36 0
