c finite Owings instance n=16 k=2
p cnf 16 56
2 3 4 0
-2 -3 -4 0
2 4 6 0
-2 -4 -6 0
2 5 8 0
-2 -5 -8 0
2 6 10 0
-2 -6 -10 0
2 7 12 0
-2 -7 -12 0
2 8 14 0
-2 -8 -14 0
2 9 16 0
-2 -9 -16 0
4 5 6 0
-4 -5 -6 0
4 6 8 0
-4 -6 -8 0
4 7 10 0
-4 -7 -10 0
4 8 12 0
-4 -8 -12 0
4 9 14 0
-4 -9 -14 0
4 10 16 0
-4 -10 -16 0
6 7 8 0
-6 -7 -8 0
6 8 10 0
-6 -8 -10 0
6 9 12 0
-6 -9 -12 0
6 10 14 0
-6 -10 -14 0
6 11 16 0
-6 -11 -16 0
8 9 10 0
-8 -9 -10 0
8 10 12 0
-8 -10 -12 0
8 11 14 0
-8 -11 -14 0
8 12 16 0
-8 -12 -16 0
10 11 12 0
-10 -11 -12 0
10 12 14 0
-10 -12 -14 0
10 13 16 0
-10 -13 -16 0
12 13 14 0
-12 -13 -14 0
12 14 16 0
-12 -14 -16 0
14 15 16 0
-14 -15 -16 0
